molecule {
O
H 1 R
H 1 R 2 A

R = .9
A = 104.5
}

plugin_load("./myplugin1.so")

set {
  basis sto-3g
}

set myplugin1 {
  print 1
}

energy('scf')

plugin("./myplugin1.so")
