#! single-point CCSD(T)/qz2p

print('        <<< Literal ZMAT to Cfour >>>')

cfour {
UHF-CCSD(T) energy calculation 
N
H 1 R
H 1 R 2 A

R=1.008
A=105.0

*ACES2(CALC=CCSD(T),BASIS=qz2p
MULT=2,REF=UHF
OCCUPATION=3-1-1-0/3-0-1-0
SCF_CONV=12
PRINT=2
CC_CONV=12
MEMORY=20000000)
}

energy('cfour')

compare_values(-55.5893469688, variable('scf total energy'), 6, 'SCF')  #TEST
compare_values(-55.784877360093, variable('mp2 total energy'), 6, 'MP2')  #TEST
compare_values(-55.802645023958, variable('ccsd total energy'), 6, 'CCSD')  #TEST
compare_values(-0.213298055172, variable('ccsd correlation energy'), 6, 'CCSD corl')  #TEST
compare_values(-0.173390809645, variable('ccsd opposite-spin correlation energy'), 6, 'CCSD OS corl')  #TEST
compare_values(-0.039907245528, variable('ccsd same-spin correlation energy'), 6, 'CCSD SS corl')  #TEST
compare_values(-55.807811611842, variable('ccsd(t) total energy'), 6, 'CCSD(T)')  #TEST
compare_values(-0.2184646435, variable('ccsd(t) correlation energy'), 6, 'CCSD(T) corl')  #TEST
compare_values(-0.0051665879, variable('(t) correction energy'), 6, '(T)')  #TEST

compare_values(-55.5893469688, variable('current reference energy'), 6, 'Current ref')  #TEST
compare_values(-0.2184646435, variable('current correlation energy'), 6, 'Current corl')  #TEST
compare_values(-55.807811611842, variable('current energy'), 6, 'Current')  #TEST

clean()
clean_variables()
cfour {}

print('        <<< Translation of ZMAT to Psi4 format to Cfour >>>')

banner('UHF-CCSD(T) energy calculation')

molecule {
0 2
N
H 1 R
H 1 R 2 A

R=1.008
A=105.0
}

set {
cfour_CALC_level=CCSD(T)
cfour_BASIS=qz2p
cfour_MULTiplicity=2
cfour_REFerence=UHF
cfour_OCCUPATION= [[3,1 ,1, 0] ,[ 3,0 ,1,0]    ]
cfour_SCF_CONV=12
cfour_PRINT=2
cfour_CC_CONV=12
}

energy('cfour')

compare_values(-55.5893469688, variable('scf total energy'), 6, 'SCF')  #TEST
compare_values(-55.784877360093, variable('mp2 total energy'), 6, 'MP2')  #TEST
compare_values(-55.802645023958, variable('ccsd total energy'), 6, 'CCSD')  #TEST
compare_values(-0.213298055172, variable('ccsd correlation energy'), 6, 'CCSD corl')  #TEST
compare_values(-0.173390809645, variable('ccsd opposite-spin correlation energy'), 6, 'CCSD OS corl')  #TEST
compare_values(-0.039907245528, variable('ccsd same-spin correlation energy'), 6, 'CCSD SS corl')  #TEST
compare_values(-55.807811611842, variable('ccsd(t) total energy'), 6, 'CCSD(T)')  #TEST
compare_values(-0.2184646435, variable('ccsd(t) correlation energy'), 6, 'CCSD(T) corl')  #TEST
compare_values(-0.0051665879, variable('(t) correction energy'), 6, '(T)')  #TEST

compare_values(-55.5893469688, variable('current reference energy'), 6, 'Current ref')  #TEST
compare_values(-0.2184646435, variable('current correlation energy'), 6, 'Current corl')  #TEST
compare_values(-55.807811611842, variable('current energy'), 6, 'Current')  #TEST

clean()
clean_variables()
cfour {}

print('        <<< Translation of ZMAT to Psi4 format to Cfour >>>')

banner('UHF-CCSD(T) energy calculation')

molecule {
0 2
N
H 1 R
H 1 R 2 A

R=1.008
A=105.0
}

set {
cfour_CALC_level=CCSD(T)
cfour_BASIS=qz2p
cfour_MULTiplicity=2
cfour_REFerence=UHF
cfour_OCCUPATION= [[3,1 ,1, 0] ,[ 3,0 ,1,0]    ]
cfour_SCF_CONV=12
cfour_PRINT=2
cfour_CC_CONV=12
}

energy('cfour')

compare_values(-55.5893469688, variable('scf total energy'), 6, 'SCF')  #TEST
compare_values(-55.784877360093, variable('mp2 total energy'), 6, 'MP2')  #TEST
compare_values(-55.802645023958, variable('ccsd total energy'), 6, 'CCSD')  #TEST
compare_values(-0.213298055172, variable('ccsd correlation energy'), 6, 'CCSD corl')  #TEST
compare_values(-0.173390809645, variable('ccsd opposite-spin correlation energy'), 6, 'CCSD OS corl')  #TEST
compare_values(-0.039907245528, variable('ccsd same-spin correlation energy'), 6, 'CCSD SS corl')  #TEST
compare_values(-55.807811611842, variable('ccsd(t) total energy'), 6, 'CCSD(T)')  #TEST
compare_values(-0.2184646435, variable('ccsd(t) correlation energy'), 6, 'CCSD(T) corl')  #TEST
compare_values(-0.0051665879, variable('(t) correction energy'), 6, '(T)')  #TEST

compare_values(-55.5893469688, variable('current reference energy'), 6, 'Current ref')  #TEST
compare_values(-0.2184646435, variable('current correlation energy'), 6, 'Current corl')  #TEST
compare_values(-55.807811611842, variable('current energy'), 6, 'Current')  #TEST

