#! DC-06 calculation for the He dimer. This performs a
#! two-step update of the orbitals and cumulant, using DIIS extrapolation.
#! Four-virtual integrals are handled in the MO Basis.


molecule he2 {
    He
    He 1 3.2
}

set {
    r_convergence 11
    e_convergence 11
    ao_basis    none
    algorithm   twostep
    basis       6-31G**
    df_scf_guess false
    reference   uhf
}

set dct_functional dc-06
energy('dct')

