#! SOS-OMP2 cc-pVDZ geometry optimization for the H2O molecule.

# NRE and SCF aren't for tightly converged opt

molecule h2o { 
0 1
o
h 1 0.958
h 1 0.958 2 104.4776 
}

set {
    basis cc-pvdz
}

if psi4.core.get_option("scf", "orbital_optimizer_package") != "INTERNAL":
    psi4.set_options({"e_convergence": 9, "d_convergence": 5e-8})

thisenergy = optimize('sos-omp2')


