#! UADC(1)/cc-pvdz calculation of 4 states for the cyanide radical

molecule cn {
    0 2
    C 0 0 0
    N 0 0 2.2143810738114829
    symmetry c1
    units au
}

set {
    reference uhf
    basis cc-pvdz
    guess core
    roots_per_irrep [4]
}

# Run calculation of excitation energies and properties
energy_adc, wfn = properties('adc(1)', properties=["oscillator_strength", "dipole"],
                             return_wfn=True)

