#! MBIS calculation on OH radical



 [-3.59110673e+00, -8.46263828e-02,  1.67782064e-15, -4.41021150e+00,
 [-2.92979455e-01, -3.01966857e-03, -6.98507878e-16, -3.22207041e-01,

 [-8.13767090e-16, -9.46924685e-15, -6.27604568e-02, -1.01867189e-15,
   8.62411686e-04, -1.36984114e-15, -9.33234424e-15, -5.44131328e-02,
 [ 3.48194357e-16, -8.08804271e-16,  3.20162956e-03,  1.46422272e-16,
   1.63782178e-03, -1.59837812e-15, -2.67426850e-15,  1.90542257e-02,

molecule mol {
  0 2
  O 0.0 0.0 0.0
  H 0.0 0.0 1.0
  symmetry c1
  no_reorient
  no_com
}

set {
  scf_type df
  d_convergence 8
  e_convergence 10
  reference uhf
  mbis_radial_points 99
  mbis_spherical_points 350
}

e, wfn = energy('hf/cc-pvdz', return_wfn=True)
oeprop(wfn, 'MBIS_CHARGES', title='OH Radical SCF')

#NOTE: wfn.array_variable gives you flattened atomic multipole arrays; for expanded arrays, use wfn.variable
charges = wfn.array_variable('MBIS CHARGES')
dipoles = wfn.array_variable('MBIS DIPOLES')
quadrupoles = wfn.array_variable('MBIS QUADRUPOLES')
octupoles = wfn.array_variable('MBIS OCTUPOLES')

# lands on different degenerate solutions due to high-symmetry wfn, so test stable values. (happens for molecular quadrupole, too, not just mbis.)

