#! DF-CCSD cc-pVDZ gradients for the H2O molecule.

ref_vals = [                                                             #TEST
             [  0.000000000000,    -0.00000000005273,     0.01239995246730],  #TEST
             [  0.000000000000,     0.00259229696603,    -0.00619997625407],  #TEST
             [  0.000000000000,    -0.00259229691330,    -0.00619997621323]   #TEST
           ]                                                             #TEST
ref = psi4.Matrix(3, 3)                                                #TEST
ref.set(ref_vals)

molecule h2o {
0 1
o
h 1 0.958
h 1 0.958 2 104.4776 
symmetry c1
}

set {
  basis cc-pvdz
  df_basis_scf cc-pvdz-jkfit
  df_basis_cc cc-pvdz-ri
  guess sad
  scf_type df
  freeze_core true
  cc_type df
}

grad = gradient('ccsd')

compare_matrices(ref, grad, 5, "Analytic gradients")  #TEST


