#! SAPT0 cc-pVDZ computation of the ethene-ethyne interaction energy, using the cc-pVDZ-JKFIT RI basis for SCF
#! and cc-pVDZ-RI for SAPT.  Monomer geometries are specified using Cartesian coordinates.

memory 1250 mb

Eref = {"SAPT ELST ENERGY":  -0.01337793703, #TEST
        "SAPT EXCH ENERGY":   0.01121567840, #TEST
        "SAPT IND ENERGY":   -0.00352942288, #TEST
        "SAPT DISP ENERGY":  -0.00028987969} #TEST

molecule dimer {
  O -2.930978458   -0.216411437    0.000000000
  H -3.655219777    1.440921844    0.000000000
  H -1.133225297    0.076934530    0.000000000
   --
  O  2.552311356    0.210645882    0.000000000
  H  3.175492012   -0.706268134   -1.433472544
  H  3.175492012   -0.706268134    1.433472544
  units bohr
  no_com
  no_reorient
}

set {
    basis         aug-cc-pvdz
    e_convergence 1e-8
    d_convergence 1e-8

    sapt_dft_grac_shift_a 0.000000000001
    sapt_dft_grac_shift_b 0.000000000001
    SAPT_DFT_FUNCTIONAL HF
}

energy('fisapt0', molecule=dimer)
fisapt0_vars = psi4.core.get_variables() #TEST

energy('sapt0', molecule=dimer)
sapt_dft_vars = psi4.core.get_variables() #TEST

energy('sapt(dft)', molecule=dimer)
sapt0_vars = psi4.core.get_variables() #TEST

for k in ["SAPT ELST ENERGY", "SAPT EXCH ENERGY", "SAPT IND ENERGY"]: #TEST
    compare_values(Eref[k], sapt_dft_vars[k], 5, "SAPT(DFT) " + k) #TEST
    compare_values(Eref[k], fisapt0_vars[k], 5, "F-SAPT " + k) #TEST
    compare_values(Eref[k], sapt0_vars[k], 5, "SAPT 0" + k) #TEST


uks_disp = sapt0_vars["Disp20,u"] + sapt0_vars["Exch-Disp20,u"] #TEST
compare_values(Eref["SAPT DISP ENERGY"], uks, disp5, "SAPT(DFT) SAPT DISP ENERGY") #TEST
compare_values(Eref["SAPT DISP ENERGY"], fisapt0_vars["SAPT DISP ENERGY"], 5, "F-SAPT SAPT DISP ENERGY") #TEST
compare_values(Eref["SAPT DISP ENERGY"], sapt0_vars["SAPT DISP ENERGY"],   5, "SAPT0 SAPT DISP ENERGY") #TEST


