#! DF-BP86-D2 cc-pVDZ frozen core gradient of S22 HCN

tpss_rks_grad = psi4.Matrix.from_list([ 
    [-0.00010973017199,   0.00184569734216,  0.00000000000000],
    [ 0.00071099771043,  -0.01092758183008,  0.00000000000000],
    [-0.00060096146912,   0.00907798275181,  0.00000000000000]])

tpss_uks_grad = psi4.Matrix.from_list([
    [ 0.00859492001991,  -0.12709581531096,  0.00000000000000],
    [-0.00681946116442,   0.10071104327839,  0.00000000000000],
    [-0.00177510821711,   0.02638124717315,  0.00000000000000]])

molecule {
  0 1
  N    -0.0034118    3.5353926    0.0000000
  C     0.0751963    2.3707040    0.0000000
  H     0.1476295    1.3052847    0.0000000
}


set {
    scf_type              df
    basis                 cc-pvdz
    freeze_core           true
    dft_radial_points     99
    dft_spherical_points  302
    e_convergence         8
    d_convergence         8
}

analytic = gradient('TPSS', dertype=1)
# finitediff = gradient('TPSS', dertype=0)

molecule {
  1 2
  N    -0.0034118    3.5353926    0.0000000
  C     0.0751963    2.3707040    0.0000000
  H     0.1476295    1.3052847    0.0000000
}

set reference uks

analytic = gradient('TPSS', dertype=1)
#finitediff = gradient('TPSS', dertype=0)
