#! meta-GGA gradients of water and ssh molecules

tpss_rks_grad = psi4.Matrix.from_list([ 
    [0.00000000000000,     0.00000000000000,    -0.00556604467872],
    [0.00000000000000,    -0.02686651162029,     0.00276999108854],
    [0.00000000000000,     0.02686651162029,     0.00276999108854],
    ])

tpss_uks_grad = psi4.Matrix.from_list([
    [ 0.01646716861838,    -0.00909971710840,     0.00000000000000],
    [ 0.01094166947781,    -0.00863902062814,     0.00000000000000],
    [-0.02741352532961,     0.01774280459577,     0.00000000000000]
    ])

molecule h2o {
0 1
O
H 1 r
H 1 r 2 a

r=1.0
a=110.0
}

set {
    scf_type              df
    basis                 cc-pvdz
    dft_radial_points     99
    dft_spherical_points  302
    e_convergence         8
    d_convergence         8
}

analytic = gradient('TPSS', dertype=1)
# finitediff = gradient('TPSS', dertype=0)

molecule ssh {
0 2
S
H 1 r1
S 1 r2 2 a1

r1=1.4
r2=2.1
a1=110.0
}

set reference uks

analytic = gradient('TPSS', dertype=1)
#finitediff = gradient('TPSS', dertype=0)
