#! 6-31G** H2O Test CCSD energy, with Z-Matrix input

refnuc   = 9.077238846804       #TEST
refscf   = -76.0219978763       #TEST
refccsd  = -0.208990979379479   #TEST
reftotal = -76.230988855677879  #TEST

molecule h2o {
    o
    h 1 0.97
    h 1 0.97 2 103.0
}

set globals {
  wfn ccsd
  reference rhf
  basis 6-31G**

  convergence 10
  e_converge 10
  d_converge 10
}

energy('ccsd')

compare_values(refnuc,   h2o.nuclear_repulsion_energy(),          9, "Nuclear repulsion energy")  #TEST
compare_values(refscf,   get_variable("SCF energy"),              9, "SCF energy")                #TEST
compare_values(refccsd,  get_variable("CCSD correlation energy"), 7, "CCSD contribution")         #TEST
compare_values(reftotal, get_variable("Current energy"),          7, "Total energy")              #TEST

clean()
