$molecule 
0 1
He
$end

$rem
basis cc-pvdz
exchange wB97
scf_print 10
scf_guess core
$end
