#! OCEPA cc-pVDZ freqs for C2H2

memory 250 mb

molecule {
0 1
C            0.000000000000     0.000000000000     0.613925250708
C            0.000000000000    -0.000000000000    -0.613925250708
H            0.000000000000    -0.000000000000     1.692424754459
H            0.000000000000    -0.000000000000    -1.692424754459
}

set {
  basis cc-pvdz
  guess sad
  mo_maxiter 200
}


frequencies('ocepa',dertype=0)
