print '        <<< Literal ZMAT to Cfour >>>'

cfour {
CC3 energy calculation 
O
H 1 R
H 1 R 2 A

R=0.958
A=104.5

*ACES2(CALC=CC3,BASIS=qz2p
SCF_CONV=12
CC_CONV=12
MEMORY=20000000)

}

energy('cfour')

compare_values(-76.062748460117, get_variable('scf total energy'), 6, 'SCF')
compare_values(-0.270191667216, get_variable('mp2 correlation energy'), 6, 'MP2 corl')
compare_values(-0.283326618243, get_variable('cc3 correlation energy'), 6, 'CC3 corl')
compare_values(-76.346075078360, get_variable('cc3 total energy'), 6, 'CC3')

clean()
clean_variables()
cfour {}

print '        <<< Translation of ZMAT to Psi4 format to Cfour >>>'

molecule {
O
H 1 R
H 1 R 2 A

R=0.958
A=104.5
}

set {
cfour_CALC_level=CC3
cfour_BASIS=qz2p
cfour_SCF_CONV=12
cfour_CC_CONV=12
}

energy('cfour')

compare_values(-76.062748460117, get_variable('scf total energy'), 6, 'SCF')
compare_values(-0.270191667216, get_variable('mp2 correlation energy'), 6, 'MP2 corl')
compare_values(-0.283326618243, get_variable('cc3 correlation energy'), 6, 'CC3 corl')
compare_values(-76.346075078360, get_variable('cc3 total energy'), 6, 'CC3')

clean()
clean_variables()

print '        <<< Translation of ZMAT to Psi4 format to Cfour >>>'

molecule {
O
H 1 R
H 1 R 2 A

R=0.958
A=104.5
}

set {
cfour_CALC_level=CC3
cfour_BASIS=qz2p
cfour_SCF_CONV=12
cfour_CC_CONV=12
}

energy('cfour')

compare_values(-76.062748460117, get_variable('scf total energy'), 6, 'SCF')
compare_values(-0.270191667216, get_variable('mp2 correlation energy'), 6, 'MP2 corl')
compare_values(-0.283326618243, get_variable('cc3 correlation energy'), 6, 'CC3 corl')
compare_values(-76.346075078360, get_variable('cc3 total energy'), 6, 'CC3')

