#! Benzene vertical singlet-triplet energy difference computation, using the
#! PubChem database to obtain the initial geometry, which is optimized at the HF/STO-3G
#! level, before computing single point energies at the RHF, UHF and ROHF levels of theory.

molecule benz{
    pubchem:benzene
}

set {
   basis     sto-3g
   reference rhf
   max_energy_g_convergence 8
   df_basis_scf cc-pvdz-ri
}

optimize('scf')

set basis cc-pvdz
set df_basis_scf cc-pvdz-jkfit
e_sing_rhf = energy('scf')

benz.set_multiplicity(3)
#
# We could have specified a triplet C6H6 molecule with the following
#
#molecule benz {
#    0 3
#    pubchem:benzene
#}
set reference rohf
e_trip_rohf = energy('scf')
set reference uhf
e_trip_uhf  = energy('scf')

vertical_uhf  = psi_hartree2ev * (e_trip_uhf  - e_sing_rhf)
vertical_rohf = psi_hartree2ev * (e_trip_rohf - e_sing_rhf)
print_out("\nSinglet-Triplet gap (vertical, UHF)   = %8.2f eV\n" % vertical_uhf)
print_out("\nSinglet-Triplet gap (vertical, ROHF)  = %8.2f eV\n" % vertical_rohf)

enuc  =  204.531600152395043                                                         #TEST
erhf  = -230.72190557842444                                                          #TEST
#erohf = -230.4166131085004849                                                        #TEST
#euhf  = -230.5397290551616720                                                        #TEST
compare_values(enuc, benz.nuclear_repulsion_energy(), 3, "Nuclear repulsion energy") #TEST 
compare_values(erhf,  e_sing_rhf,  6, "Singlet benzene RHF energy")                  #TEST 
#compare_values(erohf, e_trip_rohf, 6, "Triplet benzene UHF energy")                  #TEST 
#compare_values(euhf,  e_trip_uhf,  6, "Triplet benzene ROHF energy")                 #TEST 
