#! snsmp2 on fluoromethane-water

molecule {
0 1
C 1.89747500 -0.13719000 0.00325700
F 1.17895400 0.90412000 -0.55121800
H 1.33877600 -1.08316700 -0.09468600
H 2.08301700 0.05259100 1.07384800
H 2.86860600 -0.24760800 -0.50793900
--
0 1
O 1.64079600 2.59005000 1.73323200
H 1.30005900 3.50257800 1.87268800
H 1.30290400 2.33203700 0.84581200

units angstrom
no_reorient
symmetry c1
}

energy('sns-mp2')

#compare_values( 0.02957596, variable('DF-HF/desavqz Density Matrix Overlap'),            6, "ovlhf")  #TEST
#compare_values(-0.00863467, variable('DF-HF/desavqz Electrostatic Interaction Energy'),  6, "eshf")  #TEST
#compare_values(-0.00143114, variable('DF-HF/desavqz Heitler-London Energy'),             6, "hl")  #TEST
#compare_values( 0.03455406, variable('DF-MP2/desavqz Density Matrix Overlap'),           6, "ovlmp")  #TEST
#compare_values(-0.00841727, variable('DF-MP2/desavqz Electrostatic Interaction Energy'), 6, "esmp")  #TEST
#compare_values(-0.00348609, variable('DF-HF/desavqz CP Interaction Energy'),             5, "inthf")  #TEST
#compare_values(-0.00597490, variable('DF-MP2/desavqz CP Interaction Energy'),            5, "intmp")  #TEST
compare_values( -0.00618314810, variable('SNS-MP2 TOTAL ENERGY'),                         5, "SNS-MP2 IE [Eh]")  #TEST

