store = {}
test_psivars = ['nuclear repulsion energy', 'scf total energy', 'mp2 singles energy', 'mp2 correlation energy', 'mp2 total energy', 'mp3 correlation energy', 'mp3 total energy', 'current energy', 'current correlation energy', 'current reference energy']

print '    <<<  UHF  >>>'

cfour {
ROHF-MP3 energy calculation 
N
H 1 R
H 1 R 2 A

R=1.008
A=105.0

*ACES2(CALC=MP3,BASIS=AUG-PVDZ
MULT=2,REF=UHF
OCCUPATION=3-1-1-0/3-0-1-0
SCF_CONV=12
CC_CONV=12
MEMORY=20000000)
}

energy('cfour')

for vari in test_psivars:
    store[vari] = get_variable(vari)
    set_variable(vari, 0.0)

clean()
clean_variables()
cfour {}

molecule nh2 {
N
H 1 R
H 1 R 2 A

R=1.008
A=105.0
}

set basis aug-cc-pvdz
set reference uhf
set docc [3, 0, 0, 1]
set socc [0, 0, 1, 0]  #OCCUPATION=3-1-1-0/3-0-1-0

energy('mp3')

print test_psivars
print_variables()
for vari in test_psivars:
    if vari == 'nuclear repulsion energy':
        compare_values(store[vari], get_variable(vari), 4, vari.upper())
    else:
        compare_values(store[vari], get_variable(vari), 6, vari.upper())


