#! CVS-ADC(2)-x/cc-pvdz calculation of 7 water triplet excited states
#! tackling the Oxygen 1s edge core exitations

molecule h2o {
    O 0 0 0
    H 0 0 1.795239827225189
    H 1.693194615993441 0 -0.599043184453037
    symmetry c1
    units au
}

set {
    reference rhf
    basis cc-pvdz
    guess core
    kind triplet
    num_core_orbitals 1
    roots_per_irrep [7]
}

# Run normal calculation of excitation energies (no properties)
energy_adc, wfn = energy('cvs-adc(2)-x', return_wfn=True)

# Alternative: Run computation of properties as well
properties('cvs-adc(2)-x', properties=["oscillator_strength", "dipole"])

ref_energies = [19.67530055517526, 19.75168609674532, 20.21448482415422,                         #TEST
                20.217892736220648, 20.42587951166395, 20.446923184504957,                       #TEST
                20.568242657948243]                                                              #TEST
                                                                                                 #TEST
compare_arrays(np.array([ref_energies]).T, wfn.variable("CVS-ADC(2)-x excitation energies").np,  #TEST
               1e-5, "CVS-ADC(2)-x excitation energies")                                         #TEST
