#! F-SAPT0/jun-cc-pvdz procedure for methane dimer 

memory 1 GB

molecule mol {
0 1
C 0.00000000 0.00000000 0.00000000
H 1.09000000 0.00000000 0.00000000
H -0.36333333 0.83908239 0.59332085
H -0.36333333 0.09428973 -1.02332709
H -0.36333333 -0.93337212 0.43000624
--
0 1
C 6.44536662 -0.26509169 -0.00000000
H 7.53536662 -0.26509169 -0.00000000
H 6.08203329 0.57399070 0.59332085
H 6.08203329 -0.17080196 -1.02332709
H 6.08203329 -1.19846381 0.43000624
symmetry c1
no_reorient
no_com
}

set {
basis         jun-cc-pvdz
scf_type df
guess sad
freeze_core true
}

energy('fisapt0-d3m')






import os
import sys
import subprocess

os.chdir('fsapt')
with open('fA.dat', 'w') as fA: fA.write("MethylA 1 2 3 4 5")
with open('fB.dat', 'w') as fB: fB.write("MethylB 6 7 8 9 10")
subprocess.run([sys.executable, os.path.join('..', 'fsapt.py')], check=True)

fEnergies = {}




