#! checks that all SAPT physical components (elst, exch, indc, disp) and
#! total IE are being computed correctly for SAPT2+3(CCD)dMP2/aug-cc-pvdz and
#! all lesser methods thereof.

h2kc = psi_hartree2kcalmol
digits = 3

set print 3  # shows psivars being computed

molecule s222 {
0 1
O  -1.551007  -0.114520   0.000000
H  -1.934259   0.762503   0.000000
H  -0.599677   0.040712   0.000000
--
0 1
O   1.350625   0.111469   0.000000
H   1.680398  -0.373741  -0.758561
H   1.680398  -0.373741   0.758561
units angstrom
}

set basis jun-cc-pvdz

energy('sapt0')
print_variables()

# SCS-SAPT0
# scs-sapt0 has a definition and we check it here but that shouldn't be
#   taken for evidence that the method is any good whatsoever or that we
#   endorse it.

clean()

set basis aug-cc-pvdz

set freeze_core true

set nat_orbs_t2 true
set nat_orbs_t3 true
set nat_orbs_v4 true
set occ_tolerance 1.0e-6
set do_mbpt_disp true

energy('sapt2+3(ccd)dmp2')
print_variables()

# SAPT0

# sSAPT0

# SCS-SAPT0

# SAPT2

# SAPT2+





# SAPT2+(3)





# SAPT2+3





