#! ADC(2)/cc-pvdz calculation of 10 water singlet excited states

molecule h2o {
    O 0 0 0
    H 0 0 1.795239827225189
    H 1.693194615993441 0 -0.599043184453037
    symmetry c1
    units au
}

set {
    reference rhf
    basis cc-pvdz
    guess core
    roots_per_irrep [10]
    qc_module adcc
}

# Run normal calculation of excitation energies (no properties)
energy_adc, wfn = energy('adc(2)', return_wfn=True)

# Alternative: Run computation of properties as well
properties('adc(2)', properties=["oscillator_strength", "dipole"])

ref_gs = -76.22940338786378                                                                #TEST
ref_energies = [0.2997279806262123, 0.3744054875344185, 0.3863116841671176,                #TEST
                0.46265097902068225, 0.5598653995167914, 0.6670631937113997,               #TEST
                0.8189283607313066, 0.8531978001820779, 0.9362359585527713,                #TEST
                0.9399814433077187]                                                        #TEST
ref_oscillator = [0.028152827628130456, 6.281368936204742e-08, 0.09002792127063214,        #TEST
                  0.06934713171343496, 0.3038618782372188, 0.10575890436084909,            #TEST
                  1.5938387937108045e-06, 0.07357464161101288, 0.14708541148615661,        #TEST
                  0.0021661992925028294]                                                   #TEST
                                                                                           #TEST
compare_values(ref_gs, energy_adc, 6, "ADC(2) GS energy")                                  #TEST
compare_arrays(np.array([ref_energies]).T, wfn.variable("ADC(2) excitation energies").np,  #TEST
               1e-5, "ADC(2) excitation energies")                                         #TEST
