#! EOM-CCSD/6-31g excited state transition data for water with
#! two excited states per irrep

molecule h2o {
  O
  H 1 R
  H 1 R 2 A

  R = 1.0
  A = 104.5

}

set {
  basis 6-31g
  print 1
  roots_per_irrep [2, 2, 2, 2]
}

if psi4.core.get_option("scf", "orbital_optimizer_package") != "INTERNAL":
    psi4.set_options({"e_convergence": 9, "d_convergence": 5e-9})

wfn = properties('eom-ccsd', properties=['oscillator_strength'], return_wfn=True)[1]

### ccdensity checks



### Excitation energy checks



### Transition checks

}



