$comment
Pure EFP energy computation on benzene dimer
$end

$molecule
0 1
 He       5.0    5.0    5.0
$end

$rem
exchange hf
basis 6-31G(d)
jobtype sp
purecart 2222
efp_fragments_only true
efp_use_efpman2 0
$end

$efp_fragments
C6H6 -0.30448173 -2.24210052 -0.29383131 -0.642499 1.534222 -0.568147
C6H6 -0.60075437  1.36443336  0.78647823  3.137879 1.557344 -2.568550
$end

$efp_params
fragment C6H6
C -0.5153565449 1.2831712750 0.0019405358
C 0.8536038373 1.0878802222 -0.0046090483
C 1.3690013033 -0.1952894829 0.0026201656
C -1.3690057400 0.1952783598 0.0028882250
C -0.8535835839 -1.0878722942 -0.0048029734
C 0.5153377841 -1.2831433375 0.0021773513
H -0.9153245283 2.2794589442 0.0056559315
H 1.5162450024 1.9324902167 -0.0157664551
H 2.4318009568 -0.3469956957 0.0081844183
H -2.4318286067 0.3467992888 0.0097735587
H -1.5160416419 -1.9325929059 -0.0178557226
H 0.9151838744 -2.2794544532 0.0074571608
mult -0.5153565449 1.2831712750 0.0019405358
6.0
mult 0.8536038373 1.0878802222 -0.0046090483
6.0
mult 1.3690013033 -0.1952894829 0.0026201656
6.0
mult -1.3690057400 0.1952783598 0.0028882250
6.0
mult -0.8535835839 -1.0878722942 -0.0048029734
6.0
mult 0.5153377841 -1.2831433375 0.0021773513
6.0
mult -0.9153245283 2.2794589442 0.0056559315
1.0
mult 1.5162450024 1.9324902167 -0.0157664551
1.0
mult 2.4318009568 -0.3469956957 0.0081844183
1.0
mult -2.4318286067 0.3467992888 0.0097735587
1.0
mult -1.5160416419 -1.9325929059 -0.0178557226
1.0
mult 0.9151838744 -2.2794544532 0.0074571608
1.0
mult -0.5153565449 1.2831712750 0.0019405358
cdamp 1.8239621090 
-5.4559254779
0.0474934225 -0.1183098133 -0.0010772915
-3.3029706688 -3.4492791840 -3.5169600359 0.0700516656 -0.0009195522 0.0008915408
0.1171461337 -0.6297251371 -0.0046080934 -0.1405684170 -0.0009183245 0.1921224063 -0.0030764870 0.0635926481 -0.1583965178 -0.0006517502
mult 0.8536038373 1.0878802222 -0.0046090483
cdamp 1.8063183610 
-5.5003297657
-0.0533446716 -0.0680191767 0.0021141002
-3.4170084879 -3.4714268080 -3.6151908052 -0.1110379402 -0.0016063167 -0.0021559957
-0.1844430753 -0.3312455204 0.0071445227 -0.1809214795 0.0040119202 -0.2173217487 0.0043933852 -0.0414620539 -0.0528729485 0.0011020997
mult 1.3690013033 -0.1952894829 0.0026201656
cdamp 1.7492594530 
-5.5002954820
-0.0856056357 0.0122077655 -0.0010664750
-3.5538797199 -3.3343989165 -3.6151500434 0.0319691464 0.0012972959 -0.0009386935
-0.6003435658 0.0160367909 -0.0036891220 0.0759027682 -0.0029338578 -0.0443019018 -0.0015132734 -0.0665400998 0.0094817430 -0.0005626446
mult -1.3690057400 0.1952783598 0.0028882250
cdamp 1.7715027360 
-5.5003001668
0.0855956548 -0.0122154281 -0.0012204894
-3.5539105677 -3.3344110685 -3.6151594677 0.0319660305 -0.0017936067 0.0009892956
0.6003005703 -0.0160848995 -0.0045659325 -0.0758984795 -0.0033762869 0.0442750823 -0.0018282524 0.0665226360 -0.0095050120 -0.0005460760
mult -0.8535835839 -1.0878722942 -0.0048029734
cdamp 1.8360393070 
-5.5003311131
0.0533391907 0.0680337476 0.0023073697
-3.4169891033 -3.4714355669 -3.6151538822 -0.1110397574 0.0019682940 0.0026408366
0.1844489869 0.3313216075 0.0079651821 0.1809082714 0.0043904904 0.2173314186 0.0048382991 0.0414721832 0.0528925363 0.0012307264
mult 0.5153377841 -1.2831433375 0.0021773513
cdamp 1.8521491980 
-5.4559131076
-0.0474907183 0.1183281868 -0.0011834648
-3.3029305691 -3.4492231912 -3.5168924490 0.0700322233 0.0010291626 -0.0012603110
-0.1171764358 0.6298419923 -0.0052602808 0.1405825945 -0.0010911364 -0.1921268945 -0.0031630945 -0.0635974183 0.1584252337 -0.0006990252
mult -0.9153245283 2.2794589442 0.0056559315
cdamp 2.0398309730 
-0.7276011274
-0.0147136526 0.0366620785 0.0002183078
-0.4350610831 -0.4305438375 -0.4368649113 -0.0021641972 -0.0000019356 -0.0000101610
-0.0214767505 0.0458217363 0.0003556293 0.0168533215 0.0001100802 -0.0036726543 0.0000939931 -0.0075141426 0.0187240064 0.0000112128
mult 1.5162450024 1.9324902167 -0.0157664551
cdamp 1.9857906560 
-0.7275998155
0.0243817952 0.0310767666 -0.0006591930
-0.4335461343 -0.4320564256 -0.4368656611 0.0030390258 0.0000174717 0.0000213811
0.0338748140 0.0410263234 -0.0010737960 0.0120977056 -0.0003192336 0.0078045950 -0.0002992426 0.0124517882 0.0158708348 0.0000397409
mult 2.4318009568 -0.3469956957 0.0081844183
cdamp 1.9543529660 
-0.7275892962
0.0391081524 -0.0055866831 0.0003303287
-0.4297898219 -0.4357967912 -0.4368554636 -0.0008734814 -0.0000150013 -0.0000029658
0.0475271617 -0.0083498227 0.0005385198 -0.0012045462 0.0001365058 0.0193288572 0.0001738677 0.0199731522 -0.0028535057 0.0000078405
mult -2.4318286067 0.3467992888 0.0097735587
cdamp 1.9817167430 
-0.7275864956
-0.0391095606 0.0055713168 0.0004332089
-0.4297886161 -0.4357947587 -0.4368542279 -0.0008758060 0.0000283550 0.0000011434
-0.0475292098 0.0083241888 0.0007100102 0.0011966034 0.0001874314 -0.0193299204 0.0002297231 -0.0199739448 0.0028449629 0.0000085875
mult -1.5160416419 -1.9325929059 -0.0178557226
cdamp 2.0624258450 
-0.7276082046
-0.0243678111 -0.0310853675 -0.0007967601
-0.4335510229 -0.4320653526 -0.4368737762 0.0030396460 -0.0000267774 -0.0000334000
-0.0338523509 -0.0410394522 -0.0013017593 -0.0121031975 -0.0003902777 -0.0077968230 -0.0003680556 -0.0124440188 -0.0158754933 0.0000443785
mult 0.9151838744 -2.2794544532 0.0074571608
cdamp 2.1029119080 
-0.7276174770
0.0147045923 -0.0366635171 0.0003359000
-0.4350726296 -0.4305566628 -0.4368779994 -0.0021650110 -0.0000032489 0.0000233969
0.0214615254 -0.0458229881 0.0005510705 -0.0168543157 0.0001729810 0.0036680957 0.0001519027 0.0075090757 -0.0187246050 0.0000136706
mult 0.1691236462 1.1855257486 -0.0013342562
cdamp 10.0000000000 
-0.3748787845
0.0280890414 -0.0686142163 0.0014614895
0.0355583452 0.3057775965 -0.4869290898 0.0099219915 -0.0040364727 -0.0039620648
0.1309775383 -0.6315477354 0.0079033412 -0.0919439445 0.0020127001 -0.0202396925 0.0049427442 0.0377448394 -0.2782509196 -0.0003282799
mult 1.1113025703 0.4462953697 -0.0009944414
cdamp 10.0000000000 
-0.4235026777
0.0570614300 -0.0174983068 0.0000715538
-0.0407727092 -0.0080313910 -0.6208430484 0.0329942403 -0.0003131620 -0.0043370912
0.4307970723 -0.0529101393 -0.0000632250 0.0072761136 0.0001077750 0.1081353463 -0.0013810790 0.0596686228 -0.0586506663 -0.0007466762
mult -0.9421811424 0.7392248174 0.0024143804
cdamp 10.0000000000 
-0.4235364692
-0.0597312624 -0.0008076117 -0.0010701913
-0.0560945768 0.0070367602 -0.6209250468 -0.0189596025 -0.0033466136 0.0020907668
-0.4015128568 0.0480790861 -0.0045423275 0.0591857673 0.0000040169 -0.1291855173 -0.0003967907 -0.0737749836 -0.0395694751 -0.0007254925
mult -1.1112946620 -0.4462969672 -0.0009573742
cdamp 10.0000000000 
-0.4238353047
-0.0294984307 -0.0523988684 0.0003649744
0.0068933750 -0.0575019237 -0.6213348610 -0.0181518293 0.0001644218 0.0046495074
-0.2671395098 -0.2736198681 0.0019633183 -0.1346000347 -0.0000882727 -0.0939011020 -0.0002309977 -0.0031534565 -0.0840986305 -0.0012709817
mult 0.9421695437 -0.7392164102 0.0023987585
cdamp 10.0000000000 
-0.4682524810
0.0648041723 -0.0510196023 -0.0007222716
-0.1006348578 -0.1083106956 -0.7196696485 -0.0147497886 0.0033496674 -0.0022960559
0.3947516867 -0.3083289851 -0.0022870884 -0.1084372355 0.0000541818 0.1344815756 -0.0001482033 0.0973980651 -0.0766859924 -0.0003840655
mult -0.1691228999 -1.1855078158 -0.0013128111
cdamp 10.0000000000 
-0.3700410452
0.0197388941 0.1383243142 -0.0003166077
0.0260082043 0.5504937354 -0.4503109832 0.0691444744 0.0044433870 0.0007865974
0.0633698688 1.5871815855 -0.0016134531 0.1592141233 -0.0011709072 0.1541795459 -0.0040332943 0.0685741888 0.4806615086 -0.0010890855
mult -0.7153405366 1.7813151096 0.0037982336
cdamp 1.3520886370 
-0.3728770646
0.0908972664 -0.2263549841 -0.0003986739
-0.3031794061 -0.3054737426 -0.3092650019 0.0011003672 -0.0000325759 -0.0000120251
0.3203842471 -0.8049639740 -0.0011251943 -0.2668550941 -0.0003601096 0.1100330435 -0.0003874208 0.1076944270 -0.2681807766 -0.0000037007
mult 1.1849244198 1.5101852195 -0.0101877517
cdamp 1.4305540870 
-0.3728744905
-0.1505649318 -0.1919126514 0.0011475576
-0.3039459173 -0.3047011840 -0.3092625140 -0.0015440820 -0.0000023645 -0.0000080341
-0.5322850266 -0.6804607710 0.0032208190 -0.2282860293 0.0010626046 -0.1806667085 0.0010706595 -0.1783880776 -0.2273782948 0.0000210326
mult 1.9004011301 -0.2711425893 0.0054022920
cdamp 1.5647843930 
-0.3728737632
-0.2414689243 0.0344472610 -0.0005787665
-0.3058501719 -0.3027970817 -0.3092608924 0.0004440592 -0.0000020170 -0.0000313995
-0.8599627513 0.1212279015 -0.0016223727 0.0418753286 -0.0005515237 -0.2834163690 -0.0005247107 -0.2860853307 0.0408103769 -0.0000075110
mult -1.9004171734 0.2710388243 0.0063308918
cdamp 1.4548699450 
-0.3728715028
0.2414709268 -0.0344484386 -0.0005886306
-0.3058485454 -0.3027961282 -0.3092596814 0.0004449375 0.0000025165 0.0000309893
0.8599730459 -0.1212482150 -0.0014902706 -0.0418817680 -0.0005078360 0.2834196971 -0.0004771619 0.2860888212 -0.0408163917 -0.0000068507
mult -1.1848126129 -1.5102326000 -0.0113293480
cdamp 1.3030671490 
-0.3728766641
0.1505635542 0.1919161426 0.0012180295
-0.3039503560 -0.3047020271 -0.3092657151 -0.0015443642 0.0000029846 0.0000092484
0.5322915933 0.6804693426 0.0032778714 0.2282887470 0.0010782749 0.1806690409 0.0010876036 0.1783896608 0.2273817165 0.0000239638
mult 0.7152608292 -1.7812988954 0.0048172561
cdamp 1.2544877870 
-0.3728822229
-0.0908956286 0.2263594773 -0.0004342174
-0.3031797899 -0.3054726118 -0.3092652835 0.0011011976 0.0000321301 0.0000115807
-0.3203818084 0.8049732782 -0.0010731951 0.2668580197 -0.0003390606 -0.1100324405 -0.0003696822 -0.1076932158 0.2681841711 -0.0000018940
pol 2.0950461399 -0.3010311124 0.0058907155
5.8185043258 1.9252650158 1.7488002472 -0.5856592742 0.0152592433 -0.0076667373 -0.5815611830 0.0156127950 -0.0038893870
pol -0.7867732057 1.9648316683 0.0043314317
2.3931242873 5.3506139344 1.7487249480 -1.3959991431 -0.0107492812 0.0112297851 -1.3919090799 -0.0062615799 0.0116820590
pol -0.8386553613 0.6576543885 -0.2835551163
8.1105934569 7.7764640918 5.4245519159 -0.6817826623 0.8316435338 -0.6527538705 -0.6786054361 -0.0243213059 0.0200462300
pol -0.1484679409 -1.0539107018 -0.2869076887
7.2748330050 8.5661801669 5.4249341700 0.1837266068 0.1578695814 1.0583789643 0.1957457012 -0.0039081272 -0.0317751094
pol 0.1715361964 1.2024565851 -0.0023948029
2.4199676137 1.6916928771 0.4973944612 -0.1057352501 -0.0076869081 -0.0051406340 -0.1063448756 -0.0077424473 -0.0032910386
pol 0.7905938748 -1.9632556054 0.0051823463
2.4148240277 5.3287961160 1.7487039661 -1.4146317467 0.0106934075 -0.0109400085 -1.4181864633 0.0066471919 -0.0124851786
pol -1.3080156057 -1.6638658813 -0.0126037902
3.4032279643 4.3406016647 1.7490060250 1.9757158834 0.0252171489 0.0327644815 1.9793306061 0.0233779624 0.0294519354
pol 0.9885601963 0.3950254994 -0.2866535306
8.4100182368 7.4352650510 5.4249704948 0.4715598896 -0.9895237135 -0.4074222014 0.4635132445 0.0300339108 0.0065101793
pol -2.0956535356 0.2967685558 0.0070861193
5.8275670823 1.9162699370 1.7488725728 -0.5507261851 -0.0224045775 0.0084473693 -0.5545107978 -0.0209763071 0.0040421383
pol 1.3048227131 1.6664080525 -0.0113505124
3.3733098682 4.3708237489 1.7488769603 1.9723420809 -0.0215443651 -0.0286884140 1.9683313362 -0.0197216881 -0.0259330440
pol -0.8372266388 0.6572413076 0.2879746871
8.0680414254 7.7503220913 5.4220638230 -0.6419350014 -0.8470227868 0.6642246568 -0.6458636021 0.0237869060 -0.0179089171
pol -1.1272136133 -0.4526872048 -0.0016913264
1.7821379979 2.3297535948 0.4973580137 -0.2627326297 0.0015816261 0.0086845595 -0.2619837281 -0.0000269263 0.0087536750
pol 0.9556486974 -0.7497965432 0.0046080018
1.9660113529 2.1462209956 0.4974784108 0.3692050472 0.0090711634 -0.0060390095 0.3691273013 0.0056196962 -0.0041726061
pol 0.9881571249 0.3988001118 0.2848593948
8.4295224063 7.4322573472 5.4215192709 0.4709776020 0.9905052173 0.3877318063 0.4809878288 -0.0270236385 -0.0160847517
pol -0.1523473780 -1.0547232321 0.2845792038
7.2674965657 8.5978884830 5.4213064476 0.1997294775 -0.1433757731 -1.0530815308 0.1870033206 0.0051770250 0.0297217280
disp 2.0950461399 -0.3010311124 0.0058907155
3.1637791772 3.1629648256 3.1581880664 3.1413400493 3.0930426990 2.9675764936 2.6702481599 2.0800542050 1.2272621028 0.4594629524 0.0840902461 0.0030487922 
disp -0.7867732057 1.9648316683 0.0043314317
3.1636840173 3.1628698518 3.1580941768 3.1412497841 3.0929613878 2.9675119699 2.6702061128 2.0800325348 1.2272539871 0.4594613228 0.0840900725 0.0030487854 
disp -0.8386553613 0.6576543885 -0.2835551163
7.1025732437 7.0955769305 7.0548984029 6.9160938286 6.5530897020 5.7837055350 4.5083484769 2.9376077376 1.5006516821 0.5276854041 0.0958269901 0.0034816503 
disp -0.1484679409 -1.0539107018 -0.2869076887
7.0872427570 7.0802670916 7.0397085320 6.9013124339 6.5393685798 5.7721775299 4.5002112779 2.9330534354 1.4987030421 0.5271310593 0.0957476513 0.0034791394 
disp 0.1715361964 1.2024565851 -0.0023948029
1.5371549081 1.5376553016 1.5405381575 1.5500253460 1.5720886123 1.6032849516 1.5905974247 1.3965862131 0.9309458368 0.3895213958 0.0771023498 0.0028859814 
disp 0.7905938748 -1.9632556054 0.0051823463
3.1635833966 3.1627692626 3.1579937707 3.1411500358 3.0928636430 2.9674199569 2.6701288929 2.0799837133 1.2272364170 0.4594588358 0.0840899622 0.0030487776 
disp -1.3080156057 -1.6638658813 -0.0126037902
3.1636977285 3.1628834581 3.1581071685 3.1412607623 3.0929677051 2.9675109593 2.6701993669 2.0800274615 1.2272542368 0.4594625942 0.0840903454 0.0030487912 
disp 0.9885601963 0.3950254994 -0.2866535306
7.0887012624 7.0817236734 7.0411539215 6.9027196531 6.5406764012 5.7732787685 4.5009912757 2.9334913514 1.4988884328 0.5271808326 0.0957542574 0.0034793519 
disp -2.0956535356 0.2967685558 0.0070861193
3.1638087132 3.1629943585 3.1582175810 3.1413694866 3.0930718184 2.9676043372 2.6702718622 2.0800693151 1.2272678637 0.4594640746 0.0840903633 0.0030487972 
disp 1.3048227131 1.6664080525 -0.0113505124
3.1637254738 3.1629111919 3.1581348394 3.1412882110 3.0929945098 2.9675360559 2.6702202964 2.0800403494 1.2272581071 0.4594626240 0.0840902565 0.0030487914 
disp -0.8372266388 0.6572413076 0.2879746871
7.0788649040 7.0719017818 7.0314160347 6.8932667833 6.5319567322 5.7660515857 4.4960279931 2.9308664451 1.4978617811 0.5269080015 0.0957157492 0.0034781368 
disp -1.1272136133 -0.4526872048 -0.0016913264
1.5370103221 1.5375108253 1.5403943303 1.5498837095 1.5719526355 1.6031611894 1.5904973612 1.3965247790 0.9309232478 0.3895171068 0.0771019339 0.0028859706 
disp 0.9556486974 -0.7497965432 0.0046080018
1.5370685455 1.5375688413 1.5404511407 1.5499365534 1.5719960926 1.6031887309 1.5905072928 1.3965235311 0.9309199259 0.3895159637 0.0771018160 0.0028859594 
disp 0.9881571249 0.3988001118 0.2848593948
7.0930648135 7.0860815345 7.0454787248 6.9069320797 6.5445984646 5.7766065220 4.5034169200 2.9349700157 1.4996124032 0.5274091902 0.0957881530 0.0034804309 
disp -0.1523473780 -1.0547232321 0.2845792038
7.0941761685 7.0871914750 7.0465804580 6.9080059238 6.5456000960 5.7774583423 4.5040320387 2.9353237308 1.4997678740 0.5274552991 0.0957951056 0.0034806534 
er_basis 6-311++G(3df,2p)
er_wavefunction
1 -3.16526326E-03  -5.89700335E-03   8.47465483E-03  -8.80193307E-04  -1.46575634E-04 
1  1.71832596E-02   1.23368747E-02  -1.52381511E-03  -2.51549539E-04  -6.07978645E-02 
1 -9.72105407E-02  -4.14558127E-03   4.34754949E-04  -1.89133032E-02   1.51350702E-04 
1 -3.67648964E-03   3.29220250E-05  -1.59560058E-04   2.16934550E-04  -4.26976815E-04 
1 -3.06962294E-06  -1.20315932E-06  -2.74548367E-04  -1.44492168E-03   4.28079781E-03 
1 -8.88044207E-04  -1.36247470E-05  -1.05775992E-05   7.72802287E-05  -3.94781553E-03 
1  2.58890734E-02  -1.56437288E-03  -3.32516872E-05  -2.64190303E-04  -5.08865166E-03 
1 -3.58062220E-04   8.30846952E-04  -9.85627906E-04  -4.62835536E-04  -1.75323594E-06 
1 -1.47173019E-06  -1.50577101E-06   2.58301347E-04  -2.58774462E-04  -6.39012219E-07 
1  6.28057671E-03   1.22297557E-02  -5.40056272E-03   1.67054606E-02  -1.83164146E-05 
1 -3.05990176E-02  -8.90431743E-03   2.37949778E-02  -1.07823552E-05   3.23777414E-03 
1 -1.48643457E-01   4.52150334E-02  -2.29282811E-05  -8.46886471E-03  -1.88248365E-02 
1 -8.17253899E-04   4.60096890E-05   1.93929446E-03  -1.09477730E-03  -2.44280741E-04 
1  8.17984618E-06   4.66002848E-06   7.69094079E-04   1.10671503E-02  -9.90803418E-03 
1 -5.19182047E-03   8.00783328E-05   4.26455730E-05   2.64670276E-03   3.57260956E-02 
1  1.21280174E-02  -1.29875982E-02  -1.76980441E-04   2.76784216E-04   1.44571286E-02 
1 -1.00319948E-03  -3.15993890E-03   6.94382756E-04   2.55644808E-03   3.29169822E-05 
1 -2.60613509E-07  -1.15959921E-05   5.18346868E-05  -5.50295811E-04   1.71618335E-06 
1 -5.59459589E-02  -9.99863648E-02   1.65613297E-01  -2.56001209E-02   6.17462929E-04 
1  2.45523879E-01   2.44874581E-01  -3.76120435E-02   8.99633092E-04   3.82337562E-01 
1  1.47523001E-01  -2.31596320E-02   3.23006850E-04   3.25253315E-02   1.95811524E-02 
1 -2.82968470E-03  -4.61308456E-05  -3.47985326E-04  -1.29035751E-03  -8.37087210E-03 
1  4.26718112E-05   1.86914405E-06  -7.39395296E-03   1.60003140E-02  -7.29777627E-03 
1 -2.87443479E-02   2.46011782E-04   2.79695737E-05  -2.38008716E-02  -3.86923014E-02 
1  7.58129584E-03   3.64479505E-03  -6.42587432E-05  -8.45891404E-05  -2.96822594E-02 
1  1.02104804E-02  -2.08831082E-03   1.52370421E-05  -3.64698656E-05   8.63464230E-05 
1 -2.75412533E-05  -3.45188519E-06  -2.94306730E-03   4.38449749E-04  -3.94313850E-05 
1 -1.06817544E-03  -1.72497444E-03   2.33932308E-03  -1.26124889E-04   5.53526712E-05 
1  5.33424930E-03   1.83482014E-03  -4.51419663E-05   7.70690913E-05  -1.39962596E-01 
1  3.11142394E-03  -7.85926058E-04   3.30009429E-04  -5.19740055E-03   2.17648722E-03 
1 -3.33234391E-04   1.23561475E-05   1.49605550E-04  -8.69479841E-06   4.56596303E-05 
1 -2.41765025E-06  -2.42875326E-06   1.96735368E-05  -1.49248966E-04  -1.81845680E-04 
1 -1.31253909E-03  -2.53850013E-06  -3.40325547E-05   8.30776394E-04   1.78488655E-02 
1 -7.39823866E-03  -2.61981557E-02  -2.40085331E-05  -3.14416308E-04   7.16409889E-03 
1  5.66686923E-04  -2.07042688E-04  -3.37531306E-04   1.04550008E-04  -3.09661377E-06 
1 -6.74497282E-06   9.03810116E-06   3.10421845E-04  -4.19055538E-05   3.29131430E-06 
1 -2.90978268E-03  -5.43787858E-03   8.01441756E-03  -1.62428382E-03   1.00813488E-04 
1  1.59572883E-02   1.16191720E-02  -2.12051199E-03   1.90076665E-04  -6.30409231E-02 
1 -9.26097875E-02   3.06118496E-02  -3.01556477E-04  -2.14093779E-02   7.00953055E-04 
1  2.84467873E-03   2.18256682E-05  -2.56502760E-04  -2.41717122E-04  -2.79869426E-04 
1 -2.74178305E-06  -8.98603785E-07  -2.45038535E-04  -3.45061797E-03  -3.20192536E-03 
1  1.03757813E-03  -4.57316993E-05   6.00786359E-06   1.85642557E-04  -1.58769610E-02 
1 -2.06798725E-02   1.02063287E-02  -3.10175461E-04  -1.11734154E-04  -4.81250125E-03 
1 -1.03133089E-03  -8.60022933E-04  -1.45330633E-04   7.88189480E-04  -8.99430116E-06 
1 -7.27091766E-06   7.91890828E-06   3.30540929E-04   1.72669613E-04   1.91048789E-06 
1  5.52717127E-03   1.09070498E-02  -7.98961912E-03  -1.27761867E-02  -1.83664613E-04 
1 -2.72669900E-02  -1.26473053E-02  -1.78827815E-02  -2.84137364E-04   4.86372023E-03 
1 -1.54481993E-01  -7.03708727E-04  -8.07117036E-04  -5.96593818E-03  -1.82913783E-02 
1  6.93344753E-03  -1.26527505E-04   2.21479555E-03   3.18793889E-04  -6.25784366E-04 
1  4.03901895E-06   3.29507100E-06   6.90551947E-04   1.44901098E-02   3.68300005E-03 
1 -8.60679622E-03   2.17146391E-05   3.50987697E-05   2.37401503E-03   2.61532603E-02 
1 -2.49703033E-02  -3.75372669E-03   2.26231283E-05  -7.10778910E-05   1.39936109E-02 
1  9.97168176E-04   2.87670792E-03  -1.88536523E-03  -2.05846357E-03  -1.09432213E-05 
1  1.75096386E-05  -7.10812185E-06   1.80735071E-04   5.00047723E-04  -5.43038456E-06 
1 -2.97517141E-03  -5.14825533E-03  -1.22426402E-03   1.05633901E-03   2.87261925E-04 
1  6.07207266E-05  -5.37274762E-06   9.08785149E-04   1.43874569E-05   6.98858746E-06 
1 -7.60437882E-03  -4.62783908E-03  -2.42642331E-03   1.06378891E-02  -1.65720568E-05 
1 -3.84577269E-04   4.12964040E-06  -2.01233936E-03  -8.33904264E-04   1.69443280E-05 
1  1.92099337E-01   2.74338442E-01   8.89789317E-02  -8.30029377E-03  -1.28823459E-02 
1  1.80138314E-03  -7.32502890E-05  -1.12614736E-02   1.50619290E-03  -9.24011992E-05 
1  1.71039888E-04   5.00714936E-03   2.19459446E-03   5.87004675E-03  -1.51266997E-05 
1  4.14123648E-06   2.05091323E-06   2.37738093E-03  -3.27929569E-04   4.03108354E-06 
1 -2.79903183E-03  -4.70493595E-03  -1.04628205E-03   8.99397238E-04   2.52855332E-04 
1 -1.28223797E-04   3.81323823E-06   8.55541759E-04  -2.45196929E-04  -1.78872937E-05 
1 -7.86775394E-03  -5.34662665E-03  -2.67718075E-03   1.08429056E-02   1.41064910E-04 
1  3.86799898E-04  -5.66555449E-06  -1.57589964E-03   1.41934884E-03  -3.19722256E-05 
2 -5.59451779E-02  -9.99852788E-02  -6.06297891E-02   1.56229744E-01   5.14281766E-04 
2  2.45521389E-01  -8.98550773E-02   2.30880159E-01   7.59932325E-04   3.82396093E-01 
2 -5.37969463E-02   1.39309681E-01   3.44162951E-04   3.24922241E-02  -7.34271040E-03 
2  1.83705606E-02  -1.06173215E-05  -7.33325343E-03  -3.36618543E-03  -1.38556870E-03 
2 -2.73835679E-06   2.83910179E-05  -7.39433843E-03  -2.30355417E-02  -1.87222585E-02 
2  1.02887180E-02   4.79250871E-06   1.65641392E-04  -2.38018276E-02  -1.24000779E-03 
2  1.74133943E-02  -3.37853547E-02  -8.55299453E-05  -7.86449643E-05  -2.96816302E-02 
2 -2.55269104E-04   1.68238036E-03  -4.66383226E-03   8.39599199E-03   1.58331428E-05 
2 -3.51590537E-05   4.89602994E-05   1.09149883E-03  -2.76838927E-03  -2.47893521E-05 
2  5.52703888E-03   1.09069396E-02   1.50576453E-02  -5.29708989E-04   9.02555328E-05 
2 -2.72676712E-02   2.18083041E-02  -2.00886330E-03   1.55949336E-04   4.84969331E-03 
2  7.77947237E-02  -1.33404297E-01   2.29916058E-04  -5.95285102E-03   3.14436012E-03 
2 -1.93010113E-02   8.44089380E-05   3.23785005E-04  -1.57978431E-03   1.26530125E-03 
2  1.38528131E-06   8.73372300E-06   6.90516257E-04  -6.58023004E-05  -1.33908711E-02 
2  5.95132353E-03   1.36944479E-05   8.32988250E-05   2.37326381E-03  -1.49902151E-02 
2 -2.45129038E-03   3.73908291E-02   2.55643398E-04  -9.87461441E-05   1.39927407E-02 
2  1.39932238E-03   2.71550232E-03  -1.70404513E-03  -2.42086048E-03  -2.87861923E-06 
2 -1.04527122E-05   3.30957432E-05  -5.23134121E-04  -9.37971293E-05   3.31600739E-06 
2 -2.90987259E-03  -5.43784801E-03  -2.59972437E-03   7.75102635E-03  -1.66068009E-04 
2  1.59573867E-02  -3.97240535E-03   1.11196138E-02  -2.83081152E-04  -6.29500797E-02 
2  1.97936075E-02  -9.54737828E-02   4.17293159E-04  -2.14342529E-02  -2.80748609E-03 
2 -8.11394762E-04   1.29253302E-05  -4.55296243E-04   1.09287369E-04  -8.09320511E-05 
2 -5.93529544E-07  -9.33006766E-07  -2.44835697E-04  -2.48471801E-03   3.84587374E-03 
2  7.28212272E-05  -8.50753076E-06   7.53835358E-06   1.85928624E-04  -1.18346908E-02 
2  2.33816167E-02   6.16586798E-03  -2.61049366E-04  -3.13321331E-05  -4.81236873E-03 
2  1.55382322E-04  -1.26545066E-03   3.85102149E-04  -1.17969518E-04  -1.63972448E-06 
2 -5.70697727E-06  -1.38146980E-06  -3.14812464E-04   2.00011423E-04  -2.13821203E-06 
2  6.28025356E-03   1.22295344E-02  -1.17673207E-02  -1.30286673E-02  -9.68220235E-05 
2 -3.05981928E-02  -1.61548581E-02  -1.96072355E-02  -1.51450893E-04   3.13908571E-03 
2  3.51431513E-02  -1.51435430E-01  -6.29266916E-04  -8.44683447E-03   1.01329616E-02 
2 -1.58896933E-02  -1.04847639E-04  -5.19463898E-04  -5.44163701E-04   2.21473435E-03 
2  4.11796374E-06   4.47869877E-06   7.69269570E-04  -8.55788129E-03  -3.17435583E-03 
2  1.44367122E-02   4.71770704E-05   2.47662058E-05   2.64676799E-03   8.28907887E-03 
2 -3.04473275E-02   1.44384467E-02  -3.17850657E-05   7.06106750E-05   1.44604093E-02 
2 -5.87537149E-04  -3.40218151E-03   8.81885274E-04   2.01402438E-03  -9.92827419E-06 
2  2.05436383E-05  -4.21877922E-06   4.50604159E-04   3.19850016E-04  -4.09450384E-06 
2 -3.16562749E-03  -5.89754827E-03  -3.47693530E-03   7.77803077E-03   1.20821580E-04 
2  1.71846509E-02  -4.85090107E-03   1.14424188E-02   2.25455454E-04  -6.08016803E-02 
2  5.22272913E-02  -8.21515713E-02  -3.77411152E-04  -1.89797652E-02   3.08465450E-03 
2  1.96377857E-03   7.76009450E-06  -1.97242499E-04  -2.42286589E-04  -3.89117169E-04 
2 -2.01178144E-06  -1.23168510E-06  -2.74474777E-04   2.18507048E-03  -1.86134944E-03 
2 -4.51850925E-03   2.61749279E-06  -2.90917237E-05   7.75852736E-05   1.72720709E-02 
2 -1.17557178E-02  -2.27772539E-02  -9.73536762E-05  -3.18187113E-04  -5.09353094E-03 
2  7.69930896E-04   4.34582311E-04  -4.81052082E-04  -1.34976286E-03   8.24552526E-06 
2 -3.19173325E-06  -7.77276365E-06   9.50322101E-05   3.53023535E-04   9.61303372E-07 
2 -1.06873169E-03  -1.72620463E-03  -1.06066052E-03   2.08906584E-03  -1.47230226E-05 
2  5.33820680E-03  -8.77927498E-04   1.61231582E-03  -2.74240766E-05  -1.40013602E-01 
2 -8.66030755E-04   3.10184325E-03   1.82244053E-04  -5.11667851E-03  -8.14997531E-04 
2  2.06860981E-03  -1.13359290E-05   6.50052838E-05  -4.75237295E-05   1.29962529E-04 
2 -2.25553687E-06  -2.78889520E-06   1.94644638E-05  -1.15866669E-03  -4.90471690E-04 
2 -3.05306810E-04  -3.65612319E-05  -1.40341852E-05   8.30962043E-04  -2.07495235E-02 
2 -1.83296892E-02   1.23877269E-02  -3.32696448E-04  -1.14131996E-04   7.16700778E-03 
2  2.44643089E-04  -9.08347521E-05  -4.81458445E-04   3.64884897E-04   8.11943013E-06 
2 -4.53037263E-06  -7.80744213E-06  -1.18871815E-04   2.90005947E-04   4.61172087E-07 
2  1.92100626E-01   2.74343491E-01   8.89868940E-02  -8.29583902E-03   4.88062675E-03 
2 -1.20576949E-02  -4.62280277E-05   4.32542183E-03  -1.05062687E-02  -5.08191918E-05 
2 -7.86862729E-03  -5.35114576E-03  -2.68327751E-03   1.08363953E-02  -4.05620724E-04 
2 -7.12088539E-05   6.52920808E-06  -4.40717276E-04  -2.07438534E-03   2.68274145E-05 
2 -2.80007190E-03  -4.70891250E-03  -1.04451944E-03   9.00735212E-04  -1.50216108E-05 
2  2.82964364E-04  -6.03657940E-06  -2.13474324E-04   8.63205507E-04   5.74968417E-06 
2 -7.60500983E-03  -4.62839310E-03  -2.42749815E-03   1.06429595E-02   3.41207879E-04 
2  1.77979876E-04  -4.22522053E-06   1.72934980E-03  -1.32591481E-03  -2.57754275E-05 
2 -2.97673727E-03  -5.15017327E-03  -1.22550754E-03   1.04933113E-03  -1.96406023E-04 
2  2.18145503E-04   4.27860047E-06  -4.66978754E-04   7.79434296E-04  -2.03062804E-05 
2  1.70097570E-04   5.00813068E-03   2.19818810E-03   5.87899186E-03   3.99108313E-06 
2 -1.51810536E-05  -1.55294479E-07  -9.04189314E-04   2.22350989E-03  -3.53234981E-06 
3  4.53977125E-02   7.86829703E-02   6.92114228E-02   8.82259583E-02   1.07517254E-01 
3 -1.92018500E-01   9.35185500E-02   1.19785674E-01   1.68326183E-01  -5.23560064E-02 
3  1.01371124E-01   6.32322316E-02   1.43213959E-01  -4.85632837E-02  -6.70175671E-03 
3  2.07194704E-02   2.02351857E-02   3.37971707E-03  -3.28045969E-03   1.87718106E-03 
3 -4.00057041E-04  -1.30563990E-03   4.55638007E-03   3.76005286E-03  -1.48019933E-02 
3  4.66362938E-05  -2.63474499E-03  -1.18476110E-02   1.58119076E-02   3.25051209E-02 
3 -1.67346271E-02   2.54084612E-03  -7.08206748E-03  -8.87075004E-03   2.01043364E-02 
3 -4.73224069E-04   3.94970058E-03   6.51560735E-03   4.50741156E-03   4.99304920E-03 
3  1.35636399E-03   5.39094107E-03  -7.31284515E-04  -5.78407455E-04   1.34149858E-03 
3 -1.73997133E-03  -3.82690270E-03  -4.91735933E-03   2.32660593E-03   3.78965135E-02 
3  1.39964871E-02  -1.10079123E-02   2.89902125E-03   6.04976481E-02   2.11560051E-02 
3  5.16250576E-02  -5.71693399E-02   4.54961037E-02   7.69238560E-02  -1.31834269E-02 
3 -2.62200948E-02   1.86136923E-03  -8.67717091E-04  -8.12066050E-04  -1.84546887E-04 
3 -1.70652258E-03   6.19690080E-04  -2.72934077E-04  -1.60121707E-03  -9.11023424E-03 
3  3.86061893E-03  -1.40897552E-02   4.49748438E-03  -7.86970739E-04  -7.64079163E-03 
3 -1.60870074E-02   1.51223754E-02  -1.63984548E-02   1.09092449E-02  -6.45206952E-03 
3 -6.66024236E-04   2.83080520E-03   1.00709193E-03  -2.29413452E-03   4.02226210E-03 
3  2.62430620E-04   2.45910268E-05   1.42446039E-04  -2.47689416E-04  -1.15667517E-04 
3 -1.82662870E-03  -3.20681502E-03  -2.39016384E-03   3.25785861E-03  -3.22201105E-02 
3  7.60688265E-03  -2.06308650E-03   1.67446868E-03  -4.81434199E-02  -8.71457143E-02 
3  6.81598720E-03  -4.44845532E-02  -5.25492574E-02  -4.14862224E-02   4.33336916E-03 
3 -4.00372486E-03  -1.68023917E-02  -8.62490170E-05  -4.15771108E-05   5.39523444E-05 
3  4.97423063E-05   8.64673928E-04  -7.13852001E-05  -6.78091037E-04   1.13500469E-03 
3 -2.26565561E-03   6.52942570E-04   6.93959317E-03   2.53906334E-04   4.46597702E-03 
3  2.25854199E-03  -1.51744224E-02   3.77137589E-03   9.59664431E-03   2.18171756E-03 
3 -3.91300652E-04  -6.25750283E-05   5.83042752E-04  -8.27700972E-04  -1.27368773E-03 
3 -1.17999619E-03  -1.06733700E-03  -1.88801249E-04   1.48101161E-04  -1.56635977E-03 
3  4.54161180E-02   7.87174629E-02  -6.90378212E-02  -8.81699103E-02   1.07671174E-01 
3 -1.92097057E-01  -9.37869089E-02  -1.19270537E-01   1.68534122E-01  -4.94619066E-02 
3 -3.94605248E-02  -1.13096607E-01   1.43349948E-01  -4.81017121E-02  -1.99946116E-02 
3  1.23045560E-03   2.02859631E-02   3.27731386E-03  -3.30767358E-03   1.98983524E-03 
3  1.17619899E-03   7.05989542E-04   4.55369587E-03   6.18288762E-03  -1.41085937E-02 
3 -2.32838233E-03   1.09099209E-02   5.40175265E-03   1.57833307E-02   8.95172181E-03 
3 -2.21339367E-02   2.64605652E-02   6.99031819E-03   9.08780132E-03   1.98776915E-02 
3 -1.32606824E-03  -4.85718584E-03  -6.48427556E-03  -2.40577891E-03   4.83050358E-03 
3  1.32515420E-03   5.57098737E-03   3.71955690E-04   8.42690228E-04   1.34029896E-03 
3 -1.73774705E-03  -3.82574416E-03  -3.42725766E-03   4.16166715E-03   3.79216229E-02 
3  1.40031392E-02  -5.42858939E-03   9.90705548E-03   6.05433176E-02   1.78040423E-02 