#! Water with sto-3g, wb97x long-range corrected functional with sg1 grid
#! the omega of the functional is manually set to also check dft parameter passing through the BrianQC API

refenergy = -75.30869326189

molecule water {
    symmetry c1
    0 1
    8 -0.066308 -0.083391 0.042846
    1 0.889752 -0.042018 0.021589
    1 -0.341116 0.73212 -0.376167
}

set = {
    basis sto-3g
    reference rhf
    dft_grid_name sg1
    dft_omega 0.25
    scf_type direct
    df_scf_guess False
    brianqc_enable True
}

thisenergy = energy('scf', dft_functional = 'wb97x')

