#! Density fitted MP2 energy of H2, using density fitted reference and automatic looping over cc-pVDZ and cc-pVTZ basis sets.
#! Results are tabulated using the built in table functions by using the default options and by specifiying the format.

# This will remove the 32 file in each iteration of the for loop 
psi4_io.set_specific_retention(32,False)


molecule h2 {
   0 1
   H
   H 1 0.9
}

set {
   scf_type   df
   guess      sad
   d_convergence 12
   e_convergence 12
}

table = {}
basissets = ["cc-pVDZ", "cc-pVTZ"]


for basisset in basissets:
    set basis        $basisset
    jkbasis = basisset + "-jkfit"
    set df_basis_scf $jkbasis
    ribasis = basisset + "-ri"
    set df_basis_mp2 $ribasis
    edfmp2 = energy('mp2')
    edfscf = variable('SCF TOTAL ENERGY')
    # Store the computed values for table
    table[basisset]     = [edfscf, edfmp2]
    # We clean out the scratch files here because the dimensions of the basis set have
    # changed, so we want to generate new files
    clean()

print_out("\nSummary of results\n")
print_out("     Basis           E(DF-SCF)            E(DF-MP2)\n")
for basisset in table.keys():
    print_out("{:>10}{:20.12f}{:20.12f}\n".format(basisset, table[basisset][0], table[basisset][1]))
