#! DF-CCDL cc-pVDZ energy for the H2O molecule.

refnuc      =  9.18738642147759 #TEST
refscf      = -76.02674017978640 #TEST
refcc       = -76.23737685426539 #TEST

molecule h2o {
0 1
o
h 1 0.958
h 1 0.958 2 104.4776 
}

set {
  basis cc-pvdz
  df_basis_scf cc-pvdz-jkfit
  df_basis_cc cc-pvdz-ri
  scf_type df
  guess gwh
  freeze_core true
  cc_type df
}
energy('ccd')

compare_values(refnuc, variable("NUCLEAR REPULSION ENERGY"), 6, "Nuclear Repulsion Energy (a.u.)");  #TEST
compare_values(refscf, variable("SCF TOTAL ENERGY"), 6, "DF-HF Energy (a.u.)");                        #TEST
compare_values(refcc, variable("CCD TOTAL ENERGY"), 6, "DF-CCD Total Energy (a.u.)");               #TEST


