#! ADC(1)/cc-pvdz calculation of 10 water singlet excited states

molecule h2o {
    O 0 0 0
    H 0 0 1.795239827225189
    H 1.693194615993441 0 -0.599043184453037
    symmetry c1
    units au
}

set {
    reference rhf
    basis cc-pvdz
    guess core
    roots_per_irrep [10]
}

# Run calculation of excitation energies and properties
energy_adc, wfn = properties('adc(1)', properties=["oscillator_strength", "dipole"],
                             return_wfn=True)

ref_gs = -76.02634896855805                                                                #TEST
ref_energies = [0.3409089902662787, 0.4070388120498068, 0.4276594659464323,                #TEST
                0.4935959831287453, 0.5707670987962153, 0.6881208559084108,                #TEST
                0.8641289359004217, 0.9048263282394078, 0.9811234510427074,                #TEST
                0.9898250807146332]                                                        #TEST
ref_oscillator = [0.03088937957937796, 1.0224950564637748e-07, 0.09336443906583415,        #TEST
                  0.07950139053753319, 0.3105554004320241, 0.11712077503309133,            #TEST
                  8.186576063665832e-07, 0.08070426614247558, 0.12397520336438952,         #TEST
                  0.0028151704615164913]                                                   #TEST
                                                                                           #TEST
compare_values(ref_gs, energy_adc, 6, "ADC(1) GS energy")                                  #TEST
compare_arrays(np.array([ref_energies]).T, wfn.variable("ADC(1) excitation energies").np,  #TEST
               1e-5, "ADC(1) excitation energies")                                         #TEST
compare_arrays(np.array([ref_oscillator]).T,                                               #TEST
               wfn.variable("ADC(1) oscillator strengths (LEN)").np,                       #TEST
               5e-5, "ADC(1) oscillator strengts (LEN)")                                   #TEST
