#! CCSDT cc-pVDZ energy for the H2O molecule using MRCC

memory 500 mb

molecule h2o {
    o
    h 1 1.0
    h 1 1.0 2 104.5
}

set {
    basis cc-pvdz
    freeze_core true
}

energy('plugin_ccsd_serial')

