#! CASSCF/6-31G** energy point

molecule {
O
H 1 1.00
H 1 1.00 2 103.1
}

set {
    reference       rhf
    mcscf_type      df
    frozen_docc     [1, 0, 0, 0]
    active          [3, 0, 1, 2] 
    basis           6-31G**
}

casscf_energy = energy('casscf')

compare_values(-76.01725998335047, psi4.get_variable("SCF TOTAL ENERGY"), 6, "SCF Energy")  #TEST
compare_values(-76.07373669020915, casscf_energy, 5, 'FZC CASSCF Energy')  #TEST
