#! Test FNO-DF-CCSD(T) energy
molecule h2o {
0 1
O
H 1 1.0 
H 1 1.0 2 104.5
}

set {
  df_basis_cc cholesky
  cholesky_tolerance 1e-12
  basis        aug-cc-pvdz
  freeze_core true
  e_convergence 1e-12
  d_convergence 1e-12
  r_convergence 1e-12
  nat_orbs true
  occ_tolerance 1e-4
  scf_type pk
}
energy('df-ccsd(t)')
edfccsd  = get_variable("CCSD CORRELATION ENERGY")
edfccsdt = get_variable("CCSD(T) CORRELATION ENERGY")



clean()
