#! ADC(2)/cc-pvdz calculation of 5 water singlet excited states employing the
#! frozen-core approximation.

molecule h2o {
    O 0 0 0
    H 0 0 1.795239827225189
    H 1.693194615993441 0 -0.599043184453037
    symmetry c1
    units au
}

set {
    reference rhf
    basis cc-pvdz
    guess core
    freeze_core true
    roots_per_irrep [5]
    qc_module adcc
}

# Run normal calculation of excitation energies (no properties)
energy_adc, wfn = energy('adc(2)', return_wfn=True)

# Alternative: Run computation of properties as well
properties('adc(2)', properties=["oscillator_strength", "dipole"])

ref_gs = -76.227048973267                                                                  #TEST
ref_energies = [0.29971318348985293, 0.3743885760282841, 0.38636407813405244,              #TEST
                0.46270275899163044, 0.559863216002343]                                    #TEST
ref_oscillator = [0.0281430899299151, 6.280898066585797e-08, 0.09005479880212011,          #TEST
                  0.06942590301154085, 0.3038801118092635]                                 #TEST
                                                                                           #TEST
compare_values(ref_gs, energy_adc, 7, "ADC(2) GS energy")                                  #TEST
compare_arrays(np.array([ref_energies]).T, wfn.variable("ADC(2) excitation energies").np,  #TEST
               1e-5, "ADC(2) excitation energies")                                         #TEST
