#! SCF STO-3G geometry optimzation, with Z-matrix input

# These values are from a tightly converged QChem run

molecule h2o {
     O
     H 1 1.0
     H 1 1.0 2 104.5
# QChem optimized geometry
#O           0.000000    0.000000    0.138167
#H          -0.758081    0.000000   -0.497635
#H           0.758081    0.000000   -0.497635
}

set globals {
  diis false
  basis sto-3g
  e_converge 10
  d_converge 10
}

# We need to tighten up the Optking convergence criteria, when this is available
# Hack variables
cycle = 0
returnValue = 0
thisenergy = 0.0

while (cycle < 20 and returnValue != PsiReturnType.EndLoop):
    thisenergy = energy('rhf')
    deriv()
    returnValue = optking()
    cycle = cycle + 1


clean()
