molecule h2o {
0 1
H 
H 1 0.7
#O
#H 1 1.0
#H 1 1.0 2 104.5
symmetry c1
}

plugin_load('./plugin_lhf.so')

set {
basis cc-pvdz
scf_type df
guess SAD
maxiter 100
}

energy('scf')
set guess read
set reference rks
set dft_functional b3lyp
set maxiter 2
set diis false
plugin('./plugin_lhf.so')
