#! cc-pvdz H2O Test ACPF Energy/Properties
molecule h2o {
0 1
O
H 1 1.0 
H 1 1.0 2 104.5
}

set {
  e_convergence 1e-10
  d_convergence 1e-10
  r_convergence 1e-10
  basis cc-pvdz
  freeze_core true
  dipmom true
  print 2
}
energy('acpf')



clean()
