#  cc-pvdz H2O Test CCSD(T) energies
refnuc     = 8.80146552997   # TEST
refscf     = -76.0214184452  # TEST
refccsd    = -0.214295329669 # TEST
refccsdt   = -0.217539266337 # TEST

molecule h2o {
0 1
O
H 1 1.0 
H 1 1.0 2 104.5
symmetry c1
}

set {
  r_convergence 1e-7
  basis cc-pvdz
  freeze_core true
}
energy("plugin_ccsd_serial")

compare_values(refnuc, h2o.nuclear_repulsion_energy(), 9, "Nuclear repulsion energy")                 #TEST 
compare_values(refscf, get_variable("SCF TOTAL ENERGY"), 8, "SCF energy")                             #TEST
compare_values(refccsd, get_variable("CCSD CORRELATION ENERGY"), 8, "CCSD correlation energy")        #TEST 
compare_values(refccsdt, get_variable("CCSD(T) CORRELATION ENERGY"), 8, "CCSD(T) correlation energy") #TEST
