#! RHF-CCSD(T) cc-pVQZ frozen-core energy of the BH molecule, with Cartesian input.
#! After the computation, the checkpoint file is renamed, using the PSIO handler.


molecule bh {
    b      0.0000        0.0000        0.0000
    h      0.0000        0.0000        1.0000
}

set {
   wfn ccsd_t
   docc [3, 0, 0, 0]
   basis cc-pvqz
   freeze_core true
   dertype none
   convergence 10
   e_converge 10
   d_converge 10
}

energy('ccsd(t)')


#Here's a demonstration of how to print an manipulate the files used by Psi
psioh = PsiMod.IOManager.shared_object()
psioh.print_out()
PsiMod.IO.change_file_namespace(32, 'bh', 'cool')
psioh.print_out()

clean()
