#! DCFT calculation for the He dimer, with the K06 functional. This performs a
#! simultaneous update of the orbitals and cumulant, using DIIS extrapolation.
#! Four-virtual integrals are handled in the AO Basis, using integrals stored on disk.


molecule he2 {
    He
    He 1 3.2
}

set globals {
    r_convergence 11
    reference   uhf
    ao_basis    disk
    algorithm   simultaneous
    basis       6-31G**
}

energy('dcft')


clean()

