#! DSD S22 Ammonia test

molecule water {
0 1
N  -1.578718  -0.046611   0.000000
H  -2.158621   0.136396  -0.809565
H  -2.158621   0.136396   0.809565
H  -0.849471   0.658193   0.000000
--
0 1
N   1.578718   0.046611   0.000000
H   2.158621  -0.136396  -0.809565
H   0.849471  -0.658193   0.000000
H   2.158621  -0.136396   0.809565
}
set basis aug-cc-pvdz

set reference rks
set dft_radial_points 50
set dft_spherical_points 302

e_dhdft = energy('DSD-PBEP86', bsse_type="nocp")

