#! CVS-ADC(2)/cc-pvdz calculation of 10 water singlet excited states
#! tackling the Oxygen 1s edge core exitations

molecule h2o {
    O 0 0 0
    H 0 0 1.795239827225189
    H 1.693194615993441 0 -0.599043184453037
    symmetry c1
    units au
}

set {
    reference rhf
    basis cc-pvdz
    guess core
    num_core_orbitals 1
    roots_per_irrep [10]
}

# Run normal calculation of excitation energies (no properties)
energy_adc, wfn = energy('cvs-adc(2)', return_wfn=True)

# Alternative: Run computation of properties as well
properties('cvs-adc(2)', properties=["oscillator_strength", "dipole"])

ref_gs = -76.22940338791341                                                                    #TEST
ref_energies = [19.766078995294723, 19.837413650469358, 20.297493730945295,                    #TEST
                20.315744366616812, 20.5945123796535, 20.611072691641258,                      #TEST
                20.689195991603924, 20.946744449767046, 20.972244154158705,                    #TEST
                21.191500230371627]                                                            #TEST
ref_oscillator = [0.011488867147728454, 0.02976240404856448, 0.02252003788572667,              #TEST
                  0.024461689227625986, 0.06731549567812997, 0.10823011611938982,              #TEST
                  0.05812764453443292, 1.603185810701492e-08, 0.0014092216400913625,           #TEST
                  5.7433974998585846e-05]                                                      #TEST
                                                                                               #TEST
compare_values(ref_gs, energy_adc, 6, "CVS-ADC(2) GS energy")                                  #TEST
compare_arrays(np.array([ref_energies]).T, wfn.variable("CVS-ADC(2) excitation energies").np,  #TEST
               1e-5, "CVS-ADC(2) excitation energies")                                         #TEST
