#! Lithium test for coverage 

molecule li_anion {
-1 1
Li
}

set sad_frac_occ true
set e_convergence 8
set d_convergence 8
set stability_analysis check
set basis cc-pVDZ
set scf_type out_of_core

scf_e = energy("SCF")
compare_values(-7.41681960717086, scf_e, 6, "Lithium anion stability")

# Run several perturbations
molecule water {
O  0.000000000000  0.000000000000 -0.075791843589
H  0.000000000000 -0.866811828967  0.601435779270
H  0.000000000000  0.866811828967  0.601435779270
symmetry c1
no_reorient
no_com
}

set scf_type df
set damping_percentage 0
set stability_analysis none
scf_e = energy("SCF")
compare_values(-75.98977754532046, scf_e, 6, "Water RHF") #TEST

set perturb_h true
set perturb_with dipole_y
set perturb_magnitude 1
scf_e = energy("SCF")
compare_values(-81.35464281519849, scf_e, 6, "Water Perturb Y RHF") #TEST

set perturb_with sphere
set theta_points 10
set phi_points 10
scf_e = energy("SCF")
compare_values(-76.04926605031216, scf_e, 6, "Water Perturb Spherical RHF") #TEST

# Try out UHF NOS
molecule water_anion {
-1 2
O  0.000000000000  0.000000000000 -0.075791843589
H  0.000000000000 -0.866811828967  0.601435779270
H  0.000000000000  0.866811828967  0.601435779270
no_reorient
no_com
}

set perturb_h false
set reference uhf
set save_uhf_nos true
scf_e, scf_wfn = energy("SCF", return_wfn=True)

vals = np.abs(np.sum(scf_wfn.Ca().nph[0], axis=0))[:2] #TEST
compare_arrays(np.array([0.9865855, 0.26354467]), vals, 4, "Water Anion UHF NOS") #TEST



