#! 6-31G H2O Test FCI Energy Point

memory 250 mb

refnuc   =   9.2342185209120 #TEST
refscf   = -75.985323665263  #TEST
refci    = -76.1210978474779 #TEST
refcorr  = refci - refscf    #TEST

molecule h2o {
   O       .0000000000         .0000000000        -.0742719254
   H       .0000000000       -1.4949589982       -1.0728640373
   H       .0000000000        1.4949589982       -1.0728640373
units bohr
}

set globals {
  basis 6-31G
  icore 0
}

thisenergy = energy('fci')

# 7 digits on CI seems ok, but we may need to back it down to 6 later #TEST
compare_values(refnuc, h2o.nuclear_repulsion_energy(), 9, "Nuclear repulsion energy") #TEST 
compare_values(refscf, get_variable("SCF total energy"),     8, "SCF energy") #TEST
compare_values(refci, thisenergy,                      7, "CI energy") #TEST
compare_values(refcorr, get_variable("CI CORRELATION ENERGY"), 7, "CI correlation energy") #TEST
