#! Single point gradient of 2-1A1 state of H2O with EOM-CCSD

molecule h2o {
  0 1
  O
  H 1 0.9
  H 1 0.9 2 104.0
#  H -0.107055195862289   0.000000000000000  -1.832806614599657
#  O -0.107055195862289   0.000000000000000   0.094714436481352
#  H  1.806098405595803   0.000000000000000   0.329620161376194
#  units bohr
}

set {
  basis DZ
  dertype none
  states_per_irrep [1, 0, 0, 0]
}

optimize('ccsd', dertype=0)

clean()
