#! RHF aug-cc-pVQZ energy for the BH molecule, with Cartesian input.
#! Various gradients for a strained helium dimer and water molecule
import numpy as np

# <<<  energies  >>>


molecule h2o {
    O
    H 1 1.0
    H 1 1.0 2 104.5
}

# Get a reasonable guess, to save some iterations
set globals = {
    scf_type      df
    mp2_type      df
    e_convergence 7
    reference     rhf
}

h2o.update_geometry()

# SCF TESTS

scf_dz = energy("cbs", scf_wfn='SCF', scf_basis='cc-pVDZ')

#scf_tzvp = energy("cbs", scf_basis='def2-TZVP')
scf_tzvp = energy("cbs", scf_wfn='SCF', scf_basis='def2-TZVP')

scf_adtz = energy("cbs", scf_wfn='SCF', scf_basis='aug-cc-pV[23]Z')

# Three point extrapolation
scf_adtqz = energy("cbs", scf_wfn='SCF', scf_basis='aug-cc-pV[D3Q]Z')


# MP2 TESTS

mp2_addz = energy("cbs", corl_wfn='MP2', corl_basis='aug-cc-pV(D+d)Z')

mp2_atz = energy("cbs", corl_wfn='MP2', corl_basis='aug-cc-pVTZ')

mp2_adtz = energy("cbs", corl_wfn='MP2', corl_basis='aug-cc-pV[2T]Z')

mp2_atqz = energy("cbs", corl_wfn='MP2', corl_basis='aug-cc-pV[T,Q]Z')


# <<<  gradients  >>>


nucenergy_ref = 1.1759493570

molecule he_dimer {
    He 0 0 0
    He 0 0 1.8
}

# Get a reasonable guess, to save some iterations
set globals = {
    scf_type      pk
    mp2_type      conv
    reference     rhf
}

clean()

he_dimer.update_geometry()

# SCF TESTS

scf_dz = gradient("cbs", scf_wfn='SCF', scf_basis='cc-pVDZ')

scf_tz = gradient("cbs", scf_wfn='SCF', scf_basis='cc-pVTZ')

scf_dtz = gradient("cbs", scf_wfn='SCF', scf_basis='cc-pV[23]Z')

scf_dtqz, wfn = gradient("cbs", scf_wfn='SCF', scf_basis='cc-pV[DTQ]Z', return_wfn=True)


# MP2 TESTS
mp2_dtz, wfn = gradient("cbs", corl_wfn='MP2', corl_basis='cc-pV[DT]Z', return_wfn=True)

mp2_dtz, wfn = gradient("cbs", corl_wfn='MP2', corl_basis='cc-pV[DT]Z', dertype='energy', return_wfn=True)

# <<<  optimize  >>>

molecule h2 {
    H
    H 1 R
    R = 1
}

# Conventional to keep angular momentum low
set {
    scf_type      pk
    mp2_type      conv
    g_convergence GAU_VERYTIGHT
    e_convergence 1.e-10
}

h2.update_geometry()

optimize("cbs", scf_wfn='SCF', scf_basis='cc-pvdz')

optimize("cbs", scf_wfn='SCF', scf_basis='cc-pV[DT]Z')
