#! H2O CISD/6-31G** Optimize Geometry by Energies


molecule h2o {
    O
    H 1 1.00
    H 1 1.00 2 103.1
}

set globals {
  wfn detci
  basis 6-31G**
  conv_max_force 0.000001
  conv_max_disp  0.0001
}

thisenergy = optimize('detci', dertype = 0)


clean()

