#! Test of the superposition of atomic densities (SAD) guess, using a highly distorted water
#! geometry with a cc-pVDZ basis set.  This is just a test of the code and the user need only
#! specify guess=sad to the SCF module's (or global) options in order to use a SAD guess. The
#! test is first performed in C2v symmetry, and then in C1.

Nref  =   8.841020805217546  #TEST
E1ref = -75.973425           #TEST
Eref  = -76.01678948412534   #TEST

molecule h2o {
    O
    H 1 1.0
    H 1 1.0 2 90
}

set globals {
    basis     cc-pvdz
    scf_type  direct
    guess     sad
    sad_print 2
}

set docc       [3, 0, 1, 1]

set maxiter    1
set e_convergence 0
set d_convergence 0
E1 = energy('scf')

set maxiter    50
set e_convergence 11
set d_convergence 11
E = energy('scf')

molecule h2o_c1 {
    symmetry c1
    O
    H 1 1.0
    H 1 1.0 2 90
}

set basis cc-pvdz

set docc [5]

set maxiter 1
set e_convergence 0
set d_convergence 0
E1_c1 = energy('scf')

set maxiter 50
set e_convergence 11
set d_convergence 11
E_c1 = energy('scf')

compare_values(Nref, h2o_c1.nuclear_repulsion_energy(), 9, "C1  SAD Nuclear Repulsion Energy") #TEST
compare_values(Nref, h2o.nuclear_repulsion_energy(), 9, "C2v SAD Nuclear Repulsion Energy")    #TEST
#compare_values(E1ref, E1_c1, 1, "C1  SAD Iteration 1 Energy")                                  #TEST
#compare_values(E1ref, E1,    1, "C2v SAD Iteration 1 Energy")                                  #TEST
compare_values(Eref, E_c1, 9, "C1  SAD Iteration N Energy")                                    #TEST
compare_values(Eref, E,    9, "C2v SAD Iteration N Energy")                                    #TEST

clean()

