Nref = 8.841020805217546
E1ref = -75.99572139678682
Eref = -76.01678948412534

molecule h2o {
O
H 1 1.0
H 1 1.0 2 90
angstrom
}

globals {
basis cc-pvdz
scf_type direct
guess sad
sad_print 2
}

global docc [3, 0, 1, 1]
activate(h2o)
global maxiter 1
global e_converge 0
global d_converge 0
E1 = energy('rhf')
global maxiter 50
global e_converge 11
global d_converge 11
E = energy('rhf')

molecule h2o_c1 {
O
H 1 1.0
H 1 1.0 2 90
symmetry c1
angstrom
}
global docc [5]
activate(h2o_c1)
global maxiter 1
global e_converge 0
global d_converge 0
E1_c1 = energy('rhf')
global maxiter 50
global e_converge 11
global d_converge 11
E_c1 = energy('rhf')


compare_values(Nref, h2o_c1.nuclear_repulsion_energy(), 9, "C1  SAD Nuclear Repulsion Energy")
compare_values(Nref, h2o.nuclear_repulsion_energy(), 9, "C2v SAD Nuclear Repulsion Energy")
compare_values(E1ref, E1_c1, 2, "C1  SAD Iteration 1 Energy")
compare_values(E1ref, E1,    2, "C2v SAD Iteration 1 Energy")
compare_values(Eref, E_c1, 9, "C1  SAD Iteration N Energy")
compare_values(Eref, E,    9, "C2v SAD Iteration N Energy")

clean()
