# A simple Psi 4 input script to compute MP2 from a RHF reference

import time
import numpy as np

molecule mol {
C    1.39410    0.00000   0.00000
C    0.69705   -1.20732   0.00000
C   -0.69705   -1.20732   0.00000
C   -1.39410    0.00000   0.00000
C   -0.69705    1.20732   0.00000
C    0.69705    1.20732   0.00000
H    2.47618    0.00000   0.00000
H    1.23809   -2.14444   0.00000
H   -1.23809   -2.14444   0.00000
H   -2.47618    0.00000   0.00000
H   -1.23809    2.14444   0.00000
H    1.23809    2.14444   0.00000
symmetry c1
}

set {
basis cc-pVDZ
}

# Compute RHF refernce
psi4.print_out('\nStarting RHF...\n')

t = time.time()
RHF_E, wfn = energy('SCF', return_wfn=True)

psi4.print_out('...RHF finished in %.3f seconds:   %16.10f\n' % (time.time() - t, RHF_E))

# Split eigenvectors and eigenvalues into o and v
eps_occ = np.asarray(wfn.epsilon_a_subset("AO", "ACTIVE_OCC"))
eps_vir = np.asarray(wfn.epsilon_a_subset("AO", "ACTIVE_VIR"))
ndocc = eps_occ.shape[0]
nvirt = eps_vir.shape[0]

psi4.print_out('\nBuilding DF ERI tensor Qov...\n')
t = time.time()

# Build aux basis
aux = psi4.BasisSet.pyconstruct_auxiliary(wfn.molecule(), 'DF_BASIS_SCF', '',
                                          'JKFIT', psi4.get_global_option('BASIS'))

dfobj = DFTensor(wfn.basisset(), aux, wfn.Ca(), ndocc, nvirt)
Qov = dfobj.Qov()

psi4.print_out('...Qov build in %.3f seconds with a shape of %s, %.3f GB.\n'
                % (time.time() - t, str(Qov.shape), np.prod(Qov.shape) * 8.e-9))

psi4.print_out('\nComputing MP2 energy...\n')
t = time.time()

# This part of the denominator is identical for all i,j pairs
vv_denom = - eps_vir.reshape(-1, 1) - eps_vir

MP2corr_OS = 0.0
MP2corr_SS = 0.0
for i in range(ndocc):
    eps_i = eps_occ[i]
    i_Qv = Qov.np[:, i, :].copy()
    for j in range(i, ndocc):

        eps_j = eps_occ[j]
        j_Qv = Qov.np[:, j, :]
        tmp = np.dot(i_Qv.T, j_Qv)

        # Diagonal elements
        if i == j:
            div = 1.0 / (eps_i + eps_j + vv_denom)
        # Off-diagonal elements
        else:
            div = 2.0 / (eps_i + eps_j + vv_denom)

        MP2corr_OS += np.einsum('ab,ab,ab->', tmp, tmp, div)
        MP2corr_SS += np.einsum('ab,ab,ab->', tmp - tmp.T, tmp, div)

psi4.print_out('...finished computing MP2 energy in %.3f seconds.\n' % (time.time() - t))

MP2corr_E = MP2corr_SS + MP2corr_OS
MP2_E = RHF_E + MP2corr_E

SCS_MP2corr_E = MP2corr_SS / 3 + MP2corr_OS * (6. / 5)
SCS_MP2_E = RHF_E + SCS_MP2corr_E

psi4.print_out('\nMP2 SS correlation energy:         %16.10f\n' % MP2corr_SS)
psi4.print_out('MP2 OS correlation energy:         %16.10f\n' % MP2corr_OS)

psi4.print_out('\nMP2 correlation energy:            %16.10f\n' % MP2corr_E)
psi4.print_out('MP2 total energy:                  %16.10f\n' % MP2_E)

psi4.print_out('\nSCS-MP2 correlation energy:        %16.10f\n' % MP2corr_SS)
psi4.print_out('SCS-MP2 total energy:              %16.10f\n\n' % SCS_MP2_E)

compare_values(-0.2103495592, MP2corr_SS, 6, 'MP2 SS correlation energy:')
compare_values(-0.5874604470, MP2corr_OS, 6, 'MP2 OS correlation energy:')
compare_values(-0.7978100062, MP2corr_E, 6, 'MP2 correlation energy:')
compare_values(-231.5195496039, MP2_E, 6, 'MP2 total energy:')
compare_values(-231.4968086538, SCS_MP2_E, 6, 'SCS-MP2 total energy:')
