#! 6-31G** H2O+ Test CISD Energy Point


molecule h2o {
    1 2
    O
    H 1 1.00
    H 1 1.00 2 103.1
}

set {
  reference   rohf
  basis       6-31G**
  freeze_core true
  dipmom      true
}

thisenergy = energy('cisd')


compare_values(2.68224970371, variable("CISD DIPOLE Z"), 3, "CISD Z Dipole")
compare_values(2.79760370969, variable("SCF DIPOLE Z"), 3, "SCF Z Dipole")


