#! 6-31G** H2O+ Test CISD Energy Point

memory 250 mb


molecule h2o {
    1 2
    O
    H 1 1.00
    H 1 1.00 2 103.1
}

set globals {
  reference rohf
  basis 6-31G**
  freeze_core true
}

thisenergy = energy('cisd')

