#! 6-31G** H2O+ Test CISD Energy Point

refnuc   =   8.8046866532     #TEST
refscf   = -75.6213422266812  #TEST
refci    = -75.7850671871149  #TEST
refcorr  = refci - refscf     #TEST

molecule h2o {
    1 2
    O
    H 1 1.00
    H 1 1.00 2 103.1
}

set {
  reference   rohf
  basis       6-31G**
  freeze_core true
  dipmom      true
}

thisenergy = energy('cisd')

compare_values(refnuc, h2o.nuclear_repulsion_energy(), 9, "Nuclear repulsion energy") #TEST 
compare_values(refscf, variable("SCF total energy"),     7, "SCF energy") #TEST
compare_values(refci, thisenergy,                      7, "CI energy") #TEST
compare_values(refcorr, variable("CI CORRELATION ENERGY"), 7, "CI correlation energy") #TEST
compare_values(refcorr, variable("CISD CORRELATION ENERGY"), 7, "CI correlation energy") #TEST
#compare_values(refcorr, variable("CISD ROOT 0 CORRELATION ENERGY"), 7, "CI correlation energy") #TEST  # waiting for qcvars

compare_values(2.68224970371 / constants.dipmom_au2debye, variable("CISD DIPOLE")[2], 3, "CISD Z Dipole")  #TEST
compare_values(2.79760370969 / constants.dipmom_au2debye, variable("SCF DIPOLE")[2], 3, "SCF Z Dipole")  #TEST


