#! FSAPT with external charge on trimer

memory 1 GB

# water prism: https://science.sciencemag.org/content/sci/suppl/2012/05/16/336.6083.897.DC1/Perez_SM.pdf
# Table S43
molecule mol {
H 0.0290 -1.1199 -1.5243
O 0.9481 -1.3990 -1.3587
H 1.4371 -0.5588 -1.3099
--
H 1.0088 -1.5240 0.5086
O 1.0209 -1.1732 1.4270
H 1.5864 -0.3901 1.3101
--
H -1.0231 1.6243 -0.8743
O -0.5806 2.0297 -0.1111
H -0.9480 1.5096 0.6281
symmetry c1
no_reorient
no_com
}

external_potentials = {
    "A": [
        [ 0.417, np.array([-0.5496, -0.6026,  1.5720]) / psi_bohr2angstroms],
        [-0.834, np.array([-1.4545, -0.1932,  1.4677]) / psi_bohr2angstroms],
        [ 0.417, np.array([-1.9361, -0.4028,  2.2769]) / psi_bohr2angstroms]],
    "B": [
        [ 0.417, np.array([-2.5628, -0.8269, -1.6696]) / psi_bohr2angstroms],
        [-0.834, np.array([-1.7899, -0.4027, -1.2768]) / psi_bohr2angstroms],
        [ 0.417, np.array([-1.8988, -0.4993, -0.3072]) / psi_bohr2angstroms]],
    "C": [
        [ 0.417, np.array([ 1.1270,  1.5527, -0.1658]) / psi_bohr2angstroms],
        [-0.834, np.array([ 1.9896,  1.0738, -0.1673]) / psi_bohr2angstroms],
        [ 0.417, np.array([ 2.6619,  1.7546, -0.2910]) / psi_bohr2angstroms]],
}


set {
basis jun-cc-pvdz
scf_type df
guess sad
freeze_core true
}

energy('fisapt0', external_potentials=external_potentials)

keys = ['Enuc', 'Eelst', 'Eexch', 'Eind', 'Edisp', 'Etot']  #TEST

Eref = {  #TEST
    'Enuc'  : 74.2330370461897,      #TEST
    'Eelst' : -0.04919037863747235,  #TEST
    'Eexch' :  0.018239207303845935, #TEST
    'Eind'  : -0.007969545823122322, #TEST
    'Edisp' : -0.002794948165605119, #TEST
    'Etot'  : -0.04171566532235386,  #TEST
    }

Epsi = {  #TEST
    'Enuc'  : mol.nuclear_repulsion_energy(),  #TEST
    'Eelst' : variable("SAPT ELST ENERGY"),    #TEST
    'Eexch' : variable("SAPT EXCH ENERGY"),    #TEST
    'Eind'  : variable("SAPT IND ENERGY"),     #TEST
    'Edisp' : variable("SAPT DISP ENERGY"),    #TEST
    'Etot'  : variable("SAPT0 TOTAL ENERGY"),  #TEST
    }  #TEST

for key in keys:  #TEST
    compare_values(Eref[key], Epsi[key], 6, key)  #TEST


import os
import sys
import subprocess

os.chdir('fsapt')
with open('fA.dat', 'w') as fA: fA.write("w1 1 2 3")
with open('fB.dat', 'w') as fB: fB.write("w3 4 5 6")
subprocess.run([sys.executable, os.path.join('..', 'fsapt.py')], check=True)

fEnergies = {}
fkeys = ['fEelst', 'fEexch', 'fEindAB', 'fEindBA', 'fEdisp', 'fEedisp', 'fEtot']    #TEST

with open('fsapt.dat', 'r') as fsapt:                                    #TEST
    Energies = [float(x) for x in fsapt.readlines()[-2].split()[2:]]     #TEST

for pair in zip(fkeys,Energies):            #TEST
    fEnergies[pair[0]] = pair[1] #TEST

fEref = {               #TEST
    'fEelst' : -30.867, #TEST
    'fEexch' :  11.445, #TEST
    'fEindAB': -3.138,  #TEST
    'fEindBA': -1.863,  #TEST
    'fEdisp' : -1.754,  #TEST
    'fEedisp':  0.000,  #TEST
    'fEtot'  : -26.177} #TEST

for key in fkeys:                                      #TEST
    compare_values(fEref[key], fEnergies[key], 2, key) #TEST
