#! Non- and X2C-Relativistic SCF Energy Point

ref_nuc_energy =  9.779406144413407 #TEST
ref_nr_energy  = -76.02176935053990 #TEST 
ref_rel_energy = -76.07679144735926 #TEST

molecule h2o {
O
H 1 R
H 1 R 2 A

R = .9
A = 104.5
}

set {
  basis cc-pVDZ
  scf_type pk
}

testnr = energy('scf')
set relativistic x2c
testrel = energy('scf')

compare_values(ref_nuc_energy, h2o.nuclear_repulsion_energy(), 9, "Nuclear repulsion energy") #TEST
compare_values(ref_nr_energy,testnr, 9, "Non-relativistic SCF energy")                  #TEST
compare_values(ref_rel_energy,testrel, 9, "X2C relativistic SCF energy")                #TEST
