#! Optimization followed by frequencies H2O HF/cc-pVDZ

molecule h2o {
  O 
  H 1 0.96
  H 1 0.96 2 104.5
}

if psi4.core.get_option("scf", "orbital_optimizer_package") != "INTERNAL":
    psi4.set_options({"e_convergence": 9, "d_convergence": 5e-8})

set basis cc-pVDZ
optimize('scf')
scf_e, scf_wfn = frequencies('scf', return_wfn=True, dertype=1)


