#! Compute the dipole, quadrupole, and traceless quadrupoles for water.

molecule mol {
O   0.000000000000     0.000000000000    -0.075367841241
H   0.000000000000    -0.869758531118     0.598071166797
H   0.000000000000     0.869758531118     0.598071166797
#symmetry c1
}

set basis aug-cc-pVDZ
properties("SCF", properties=["DIPOLE_POLARIZABILITIES", "QUADRUPOLE_POLARIZABILITIES",
                  "TRACELESS_QUADRUPOLE_POLARIZABILITIES"])

bench_vals = {                                  #TEST
    "DIPOLE POLARIZABILITY XX" :    8.01603,   #TEST
    "DIPOLE POLARIZABILITY XY" :    0.00000,   #TEST
    "DIPOLE POLARIZABILITY XZ" :    0.00003,   #TEST
    "DIPOLE POLARIZABILITY YY" :   12.52796,   #TEST
    "DIPOLE POLARIZABILITY YZ" :   -0.00000,   #TEST
    "DIPOLE POLARIZABILITY ZZ" :   10.02099,   #TEST
    "QUADRUPOLE POLARIZABILITY XXXX" :   27.71037,   #TEST
    "QUADRUPOLE POLARIZABILITY XXXZ" :    0.00009,   #TEST
    "QUADRUPOLE POLARIZABILITY XXXZ" :    0.00009,   #TEST
    "QUADRUPOLE POLARIZABILITY XXYY" :    4.15403,   #TEST
    "QUADRUPOLE POLARIZABILITY XXYZ" :   -0.00000,   #TEST
    "QUADRUPOLE POLARIZABILITY XXZZ" :    8.79518,   #TEST
    "QUADRUPOLE POLARIZABILITY XZXZ" :    9.41675,   #TEST
    "QUADRUPOLE POLARIZABILITY XZXZ" :    9.41675,   #TEST
    "QUADRUPOLE POLARIZABILITY XZYY" :    0.00002,   #TEST
    "QUADRUPOLE POLARIZABILITY XZYZ" :    0.00000,   #TEST
    "QUADRUPOLE POLARIZABILITY XZZZ" :    0.00010,   #TEST
    "QUADRUPOLE POLARIZABILITY XZXZ" :    9.41675,   #TEST
    "QUADRUPOLE POLARIZABILITY XZYY" :    0.00002,   #TEST
    "QUADRUPOLE POLARIZABILITY XZYZ" :    0.00000,   #TEST
    "QUADRUPOLE POLARIZABILITY XZZZ" :    0.00010,   #TEST
    "QUADRUPOLE POLARIZABILITY YYYY" :   41.76566,   #TEST
    "QUADRUPOLE POLARIZABILITY YYYZ" :   -0.00000,   #TEST
    "QUADRUPOLE POLARIZABILITY YYZZ" :    9.34726,   #TEST
    "QUADRUPOLE POLARIZABILITY YZYZ" :   21.84604,   #TEST
    "QUADRUPOLE POLARIZABILITY YZZZ" :   -0.00000,   #TEST
    "QUADRUPOLE POLARIZABILITY ZZZZ" :   31.72411,   #TEST
    "TRACELESS QUADRUPOLE POLARIZABILITY XXXX" :   37.80725,   #TEST
    "TRACELESS QUADRUPOLE POLARIZABILITY XXXZ" :    0.00005,   #TEST
    "TRACELESS QUADRUPOLE POLARIZABILITY XXXZ" :    0.00005,   #TEST
    "TRACELESS QUADRUPOLE POLARIZABILITY XXYY" :  -26.15007,   #TEST
    "TRACELESS QUADRUPOLE POLARIZABILITY XXYZ" :    0.00000,   #TEST
    "TRACELESS QUADRUPOLE POLARIZABILITY XXZZ" :  -11.65718,   #TEST
    "TRACELESS QUADRUPOLE POLARIZABILITY XZXZ" :   21.18768,   #TEST
    "TRACELESS QUADRUPOLE POLARIZABILITY XZXZ" :   21.18768,   #TEST
    "TRACELESS QUADRUPOLE POLARIZABILITY XZYY" :   -0.00010,   #TEST
    "TRACELESS QUADRUPOLE POLARIZABILITY XZYZ" :    0.00000,   #TEST
    "TRACELESS QUADRUPOLE POLARIZABILITY XZZZ" :    0.00006,   #TEST
    "TRACELESS QUADRUPOLE POLARIZABILITY XZXZ" :   21.18768,   #TEST
    "TRACELESS QUADRUPOLE POLARIZABILITY XZYY" :   -0.00010,   #TEST
    "TRACELESS QUADRUPOLE POLARIZABILITY XZYZ" :    0.00000,   #TEST
    "TRACELESS QUADRUPOLE POLARIZABILITY XZZZ" :    0.00006,   #TEST
    "TRACELESS QUADRUPOLE POLARIZABILITY YYYY" :   47.52058,   #TEST
    "TRACELESS QUADRUPOLE POLARIZABILITY YYYZ" :   -0.00000,   #TEST
    "TRACELESS QUADRUPOLE POLARIZABILITY YYZZ" :  -21.37052,   #TEST
    "TRACELESS QUADRUPOLE POLARIZABILITY YZYZ" :   49.15359,   #TEST
    "TRACELESS QUADRUPOLE POLARIZABILITY YZZZ" :   -0.00000,   #TEST
    "TRACELESS QUADRUPOLE POLARIZABILITY ZZZZ" :   33.02770}   #TEST

for k, v in bench_vals.items():                   #TEST
    compare_values(variable(k), v, 3, k)      #TEST
