#! DF-OMP3 cc-pVDZ gradients for the H2O+ cation.

ref_vals = [                                                             #TEST
             [ 0.000000000000,     0.00000000000000,    -0.03825485470567],  #TEST
             [ 0.000000000000,     0.07747179902396,     0.01912742735284],  #TEST
             [ 0.000000000000,    -0.07747179902396,     0.01912742735284]   #TEST
           ]                                                             #TEST
ref = psi4.Matrix(3, 3)                                                #TEST
ref.set(ref_vals)

memory 256 mb

molecule h2o {
1 2
o
h 1 0.958
h 1 0.958 2 104.4776 
}

set {
  basis cc-pvdz
  df_basis_scf cc-pvdz-jkfit
  df_basis_cc cc-pvdz-ri
  scf_type df
  guess sad
  freeze_core true
  reference uhf
}
gradient('df-omp3')

grad = psi4.wavefunction().gradient()                           #TEST
compare_matrices(ref, grad, 5, "Analytic gradients")              #TEST


