#%! DCFT calculation for the He dimer, with the K06 functional. This performs a
#%! simultaneous update of the orbitals and cumulant, using DIIS extrapolation.
#%! Four-virtual integrals are handled in the MO Basis.

molecule he2 {
    He
    He 1 3.2
}

globals {
    convergence 11
    ao_basis none
    algorithm simultaneous
    basis 3-21G
}

activate(ch2)
mints()
dcft()

#psi: (
# label = "blah"
#  jobtype = sp
#  wfn = dcft
#  maxiter = 40
#  scf_maxiter = 50
#  convergence = 11
#  ao_basis = none
#  algorithm = simultaneous
#  reference = rhf
#  basis = 3-21G
#  zmat = (
#    He
#    He 1 3.2
#  )
#)
