#! A simple Psi 4 input script to compute a SCF reference using Psi4's libJK

import time
import numpy as np

# Benzene
molecule mol {
He
symmetry c1
}

set {
basis aug-cc-pVDZ
scf_type df
e_convergence 1e-8
}

# Set tolerances
maxiter = 12
E_conv = 1.0E-6
D_conv = 1.0E-5

# Integral generation from Psi4's MintsHelper
wfn = psi4.new_wavefunction(mol, psi4.get_global_option('BASIS'))
mints = MintsHelper(wfn.basisset())
S = mints.ao_overlap()

# Get nbf and ndocc for closed shell molecules
nbf = wfn.nso()
ndocc = wfn.nalpha()
if wfn.nalpha() != wfn.nbeta():
    raise PsiException("Only valid for RHF wavefunctions!")

psi4.print_out('\nNumber of occupied orbitals: %d\n' % ndocc)
psi4.print_out('Number of basis functions:   %d\n' % nbf)

# Build H_core
V = mints.ao_potential()
T = mints.ao_kinetic()
H = T.clone()
H.add(V)

# Orthogonalizer A = S^(-1/2)
A = mints.ao_overlap()
A.power(-0.5, 1.e-16)

# Diagonalize routine
def build_orbitals(diag):
    Fp = psi4.Matrix.triplet(A, diag, A, True, False, True)

    Cp = psi4.Matrix(nbf, nbf)
    eigvecs = psi4.Vector(nbf)
    Fp.diagonalize(Cp, eigvecs, psi4.DiagonalizeOrder.Ascending)

    C = psi4.Matrix.doublet(A, Cp, False, False)

    Cocc = psi4.Matrix(nbf, ndocc)
    Cocc.np[:] = C.np[:, :ndocc]

    D = psi4.Matrix.doublet(Cocc, Cocc, False, True)
    return C, Cocc, D

# Build core orbitals
C, Cocc, D = build_orbitals(H)

# Setup data for DIIS
t = time.time()
E = 0.0
Enuc = mol.nuclear_repulsion_energy()
Eold = 0.0
Dold = psi4.Matrix(nbf, nbf)
Fock_list = []
DIIS_error = []

# Initialize the JK object
jk = psi4.JK.build_JK(wfn.basisset())
jk.set_memory(int(1.25e8))  # 1GB
jk.initialize()
jk.print_header()

psi4.print_out('\nTotal time taken for setup: %.3f seconds\n' % (time.time() - t))

psi4.print_out('\nStart SCF iterations:\n\n')
t = time.time()

for SCF_ITER in range(1, maxiter + 1):

    # Compute JK
    jk.C_left_add(Cocc)
    jk.compute()
    jk.C_clear()

    # Build Fock matrix
    F = H.clone()
    F.axpy(2.0, jk.J()[0])
    F.axpy(-1.0, jk.K()[0])

    # DIIS error build and update
    diis_e = psi4.Matrix.triplet(F, D, S, False, False, False)
    diis_e.subtract(psi4.Matrix.triplet(S, D, F, False, False, False))
    diis_e = psi4.Matrix.triplet(A, diis_e, A, False, False, False)

    # SCF energy and update
    FH = F.clone()
    FH.add(H)
    SCF_E = FH.vector_dot(D) + Enuc

    dRMS = diis_e.rms()

    psi4.print_out('SCF Iteration %3d: Energy = %4.16f   dE = % 1.5E   dRMS = %1.5E\n'
          % (SCF_ITER, SCF_E, (SCF_E - Eold), dRMS))
    if (abs(SCF_E - Eold) < E_conv) and (dRMS < D_conv):
        break

    Eold = SCF_E
    Dold = D

    # Diagonalize Fock matrix
    C, Cocc, D = build_orbitals(F)

    if SCF_ITER == maxiter:
        psi4.clean()
        raise Exception("Maximum number of SCF cycles exceeded.\n")

psi4.print_out('Total time for SCF iterations: %.3f seconds \n\n' % (time.time() - t))

psi4.print_out('Final SCF energy: %.8f hartree\n' % SCF_E)
compare_values(-2.8557342505784704, SCF_E, 6, 'SCF Energy')
