#! DF-OMP2.5 cc-pVDZ gradients for the H2O+ cation.

ref = psi4.Matrix.from_list([                                        #TEST
        [ 0.000000000000,     0.000000000000,     0.046715793110],  #TEST
        [ 0.000000000000,     0.040489442362,    -0.023357896555],  #TEST
        [ 0.000000000000,    -0.040489442362,    -0.023357896555]   #TEST
      ])                                                            #TEST

molecule h2o {
1 2
o
h 1 0.958
h 1 0.958 2 104.4776 
}

set {
  basis cc-pvdz
  df_basis_scf cc-pvdz-jkfit
  df_basis_cc cc-pvdz-ri
  scf_type df
  guess gwh
  freeze_core true
  reference uhf
  mp_type df
}

grad = gradient('omp2.5')

compare_matrices(ref, grad, 5, "Analytic gradients")  #TEST


