#! Extrapolated water energies - conventional integrals version
import numpy as np

nucenergy_ref =   8.8014655646      #TEST
scf_dz_ref    = -76.02141845  #TEST
scf_tzvp_ref  = -76.05315243  #TEST
scf_adtz_ref  = -76.05912763  #TEST
scf_adtqz_ref = -76.06168985  #TEST
mp2_addz_ref  = -76.26125553  #TEST
mp2_atz_ref   = -76.34114403  #TEST
mp2_adtz_ref  = -76.36684616  #TEST
mp2_atqz_ref  = -76.40385856  #TEST
scf_zapa_ref  = -76.0630494797  #TEST

molecule h2o {
    O
    H 1 1.0
    H 1 1.0 2 104.5
}

# Use DF to save some time
set {
    scf_type pk
    mp2_type conv
    e_convergence 9
    d_convergence 8
    reference     rhf
}

h2o.update_geometry()
compare_values(nucenergy_ref, h2o.nuclear_repulsion_energy(), 9, "Nuclear repulsion energy") #TEST

# SCF TESTS

scf_dz = energy('SCF/cc-pVDZ')
compare_values(scf_dz_ref, scf_dz, 6, "[1] SCF/DZ Energy Check")  #TEST
clean()

scf_tzvp = energy('SCF/def2-TZVP')
compare_values(scf_tzvp_ref, scf_tzvp, 6, "[2] SCF/TZVP Energy Check")  #TEST

scf_adtz = energy('SCF/aug-cc-pV[23]Z')
compare_values(scf_adtz_ref, scf_adtz, 6, "[3] SCF/a[DT]Z Energy Check")  #TEST

scf_zapa = energy('SCF/[23]ZaPa-NR')
compare_values(scf_zapa_ref, scf_zapa, 6, "[4] SCF/[DT]ZaPa-NR Energy Check")  #TEST

# Three point extrapolation
#scf_adtqz = energy('SCF/aug-cc-pV[D3Q]Z')
#compare_values(scf_adtqz_ref, scf_adtqz, 6, "[5] SCF/a[DTQ]Z Energy Check")  #TEST


# MP2 TESTS

mp2_addz = energy('MP2/aug-cc-pV(D+d)Z')
compare_values(mp2_addz_ref, mp2_addz, 6, "[6] MP2/a(D+d)Z Energy Check")  #TEST
clean()

mp2_atz = energy('MP2/aug-cc-pVTZ')
compare_values(mp2_atz_ref, mp2_atz, 6, "[7] MP2/aTZ Energy Check")  #TEST

mp2_adtz = energy('MP2/aug-cc-pV[2T]Z')
compare_values(mp2_adtz_ref, mp2_adtz, 6, "[8] MP2/a[DT]Z Energy Check")  #TEST

#mp2_atqz = energy('MP2/aug-cc-pV[T,Q]Z')
#compare_values(mp2_atqz_ref, mp2_atqz, 6, "[9] MP2/a[TQ]Z Energy Check")  #TEST


