#! spin-flip ADC(2)/6-31G calculation of hydrogen-fluoride near the bond dissociation.
#! We tackle the singlet ground state and its singlet excited states by a triplet UHF
#! reference, flipping the spin during excitation. The first excited states of the ADC(2)
#! calculation now describes the actual ground state.

molecule hf {
    0 3
    H 0 0 0
    F 0 0 2.5
    symmetry c1
    units au
}

set {
    reference uhf
    basis 6-31G
    guess core
    roots_per_irrep [5]
    kind spin_flip
}

# Run normal calculation of excitation energies (no properties)
energy_adc, wfn = energy('adc(2)', return_wfn=True)

# Alternative: Run computation of properties as well
properties('adc(2)', properties=["oscillator_strength", "dipole"])

ref_gs = -99.87582801044961                                                                #TEST
ref_energies = [-0.1433847274931554, 0.0014664286992671445, 0.011928018383347928,          #TEST
                0.0179085592868449, 0.15136643390946095]                                   #TEST
compare_values(ref_gs, energy_adc, 7, "ADC(2) GS energy")                                  #TEST
compare_arrays(np.array([ref_energies]).T, wfn.variable("ADC(2) excitation energies").np,  #TEST
               1e-5, "ADC(2) excitation energies")                                         #TEST
