molecule efp_spec {
 efp h2o
   12.367760      10.975250      14.586510
   12.667180      10.070420      14.497860
   12.152420      11.245330      13.693810
  --
 efp h2o
   13.441200      15.569760      17.346060
   13.451730      14.896590      18.026460
   13.813360      15.139020      16.576530
  --
 efp h2o
   17.635520      16.459080      11.575970
   16.821390      16.119280      11.204570
   17.471030      16.499520      12.518050
  --
 efp h2o
   20.107080      16.810490      14.136380
   19.410890      16.178870      14.316920
   20.087870      17.408840      14.883260
  --
 efp h2o
   20.066600      12.932580      15.352370
   20.519420      12.097530      15.470110
   19.136710      12.707030      15.378010
  --
 efp h2o
   17.301560      15.827170      14.391830
   16.556920      15.226260      14.417040
   17.049530      16.546070      14.971390
 no_reorient
 no_com
}

set {
  step_type nr
  geom_maxiter 200
}

optimize('efp')

