#! Gradient regularized asymptotic correction (GRAC) test.

memory 250 mb

molecule ne {
  0 1
  Ne
  symmetry c1
}

set basis aug-cc-pVDZ
set dft_grac_shift 0.203293

scf_e, scf_wfn = energy("PBE0", return_wfn=True)
eps = scf_wfn.epsilon_a_subset("AO", "ALL")
scf_homo = eps[4]
scf_lumo = eps[5]

compare_values(-128.82046204690357, scf_e, 6, "Ne PBE0AC Energy") #TEST
compare_values(-0.787998, scf_homo, 4, "Ne PBE0AC Eigenvalue LUMO") #TEST
compare_values(-0.005747, scf_lumo, 4, "Ne PBE0AC Eigenvalue HOMO") #TEST
