#! Frequencies for H2O B3LYP/6-31G* at optimized geometry

memory 250 mb

molecule h2o {
  O
  H 1 0.96864
  H 1 0.96864 2 103.586
}

set basis 6-31G*
frequencies('b3lyp')



