#! Single point energies of multiple excited states with EOM-CCSD

scf_0       =   -76.021709716552  #TEST
ccsd_0      =   -76.231133524444  #TEST
eomccsd_ref = [ (-75.814603692260, "A1", 1), (-75.539103963086, "A1", 2), (-75.831943898862, "A2", 0), (-75.396306147194, "A2", 1),  #TEST
                (-75.909915072934, "B1", 0), (-75.311455726994, "B1", 1), (-75.734249213528, "B2", 0), (-75.649833933279, "B2", 1) ] #TEST
eomccsd_ref.sort()

molecule h2o {
  O
  H 1 0.9
  H 1 0.9 2 104.0
}

set {
  basis cc-pVDZ
  roots_per_irrep [2, 2, 2, 2]
}

energy('eom-ccsd')

compare_values(scf_0, variable("SCF TOTAL ENERGY"), 6, "SCF energy")                 #TEST
compare_values(ccsd_0, variable("CCSD TOTAL ENERGY"), 6, "CCSD energy")              #TEST
for (ref, h, i) in eomccsd_ref: # TEST
    val = variable(f"CCSD ROOT {i} (IN {h}) TOTAL ENERGY")                                 #TEST
    compare_values(ref, val, 6, f"EOM-CCSD root {i} (IN {h})")                                #TEST
