#! ADC(2)-x/cc-pvdz calculation of 5 water singlet excited states keeping 5 virtual
#! orbitals frozen for the calculation.

molecule h2o {
    O 0 0 0
    H 0 0 1.795239827225189
    H 1.693194615993441 0 -0.599043184453037
    symmetry c1
    units au
}

set {
    reference rhf
    basis cc-pvdz
    guess core
    num_frozen_uocc 5
    roots_per_irrep [5]
}

# Run normal calculation of excitation energies (no properties)
energy_adc, wfn = energy('adc(2)-x', return_wfn=True)

# Alternative: Run computation of properties as well
properties('adc(2)-x', properties=["oscillator_strength", "dipole"])

ref_gs = -76.17758646463754
ref_energies = [0.27923294183912084, 0.3561581713403726, 0.3687934240091567,                 #TEST
                0.4475153025920463, 0.5444444277989609]                                      #TEST
ref_oscillator = [0.02522186041966282, 6.117976294676366e-08, 0.08634173428781433,           #TEST
                  0.06691737304606193, 0.301840010718239]                                    #TEST
                                                                                             #TEST
compare_values(ref_gs, energy_adc, 7, "ADC(2)-x GS energy")                                  #TEST
compare_arrays(np.array([ref_energies]).T, wfn.variable("ADC(2)-x excitation energies").np,  #TEST
               1e-5, "ADC(2)-x excitation energies")                                         #TEST
