#! RHF-CCSD/cc-pVDZ energy of H2O partitioned into pair energy contributions.

molecule h2o {
  0 1
  O
  H 1 0.957119
  H 1 0.957119 2 104.225
}

set {
  wfn ccsd
  basis "cc-pVDZ"
  freeze_core true
  print_pair_energies true
  spinadapt_energies true
}

energy('ccsd')
clean()

