#! SCF DZ allene geometry optimization, with Cartesian input, first in c2v symmetry,
#! then in Cs symmetry from a starting point with a non-linear central bond angle.

oopkg = os.environ.get("_PSI4_USE_OOPKG", False)
psi4.set_options({"orbital_optimizer_package": "ooo" if oopkg else "internal"})


# starting point is D2d/c2v
molecule allene {
 H  0.0  -0.92   -1.8
 H  0.0   0.92   -1.8
 C  0.0   0.00   -1.3
 C  0.0   0.00    0.0
 C  0.0   0.00    1.3
 H  0.92  0.00    1.8
 H -0.92  0.00    1.8
}

set {
  basis DZ
  e_convergence 10
  d_convergence 10
  scf_type pk
}

if psi4.core.get_option("scf", "orbital_optimizer_package") != "INTERNAL":
    psi4.set_options({"e_convergence": 9, "d_convergence": 5e-8})

thisenergy = optimize('scf')


# central C-C-C bond angle starts around 170 degrees to test the dynamic addition
# of new linear bending coordinates, and the redefinition of dihedrals.
molecule allene {
 H  0.0  -0.92   -1.8
 H  0.0   0.92   -1.8
 C  0.0   0.00   -1.3
 C  0.0   0.10    0.0
 C  0.0   0.00    1.3
 H  0.92  0.00    1.8
 H -0.92  0.00    1.8
}

thisenergy = optimize('scf')

