#! ROHF-EOM-CCSD/DZ analytic gradient lowest $^{2}B@@1$ state of H2O+ (A1 excitation)

molecule h2o {
  1 2
  H -0.107055195862289   0.000000000000000  -1.832806614599657
  O -0.107055195862289   0.000000000000000   0.094714436481352
  H  1.806098405595803   0.000000000000000   0.329620161376194
  units bohr
}

set {
  reference rohf
  basis DZ
  roots_per_irrep [0, 0, 1, 0]
}

analytic_grad = gradient('eom-ccsd')
findif_grad = gradient('eom-ccsd', dertype=0)


set findif points 5

findif_grad = gradient('eom-ccsd', dertype=0)


