#! OMP3 cc-pVDZ gradient for the H2O molecule.

# Test values are analytic from Jonathon's Psi4Numpy code, run 03/20, residual convergence 12. # TEST
ref = psi4.Matrix.from_list([                                 #TEST
        [ 0.000000000000,  0.000000000000,  0.009548101591],  #TEST
        [ 0.000000000000,  0.000710220688, -0.004774050795],  #TEST
        [ 0.000000000000, -0.000710220688, -0.004774050795]   #TEST
      ])                                                      #TEST

molecule h2o {
0 1
o
h 1 0.958
h 1 0.958 2 104.4776 
}

set {
  basis cc-pvdz
}

grad = gradient('omp3')

compare_matrices(ref, grad, 5, "Analytic gradients")  #TEST

