#! RHF 6-31G** energy of water, using the MCSCF module and Z-matrix input.

memory 250 mb

refnuc =   9.329422200614    #TEST
refscf = -76.023615019463    #TEST

molecule h2o {
    O
    H  1  0.94306
    H  1  0.94306 2  105.96877
}

set globals {
  reference rhf
  basis 6-31G**
  docc [3, 0, 1, 1]
  r_convergence 12
}

thisenergy = energy('mcscf')

compare_values(refnuc, h2o.nuclear_repulsion_energy(), 11, "Nuclear Repulsion Energy")  #TEST
compare_values(refscf, thisenergy, 11, "SCF energy")                                    #TEST
