#! He Dimer VV10 functional test.

bench = {"DFT VV10 ENERGY": 0.0187968521125124, # TEST
         "DFT XC ENERGY":  -2.1610005673059192, # TEST
         "CURRENT ENERGY": -5.8199580945288414} # TEST

molecule ne {
  0 1
  He 0 0 -2.0
  He 0 0  2.0
}


set BASIS aug-cc-pVDZ
set DFT_VV10_SPHERICAL_POINTS 50
set DFT_VV10_RADIAL_POINTS 20

scf_e, scf_wfn = energy("VV10", return_wfn=True)

for k, v in bench.items():                        # TEST
    compare_values(v, psi4.get_variable(k), 6, k) # TEST
