#! RHF-CCSD 6-31G** all-electron optimization of the H2O molecule

molecule h2o {
    O
    H 1 0.97
    H 1 0.97 2 103.0
}

set {
    basis 6-31G**

    convergence 11
    e_converge 11
    d_converge 11
}

optimize('ccsd')

refnuc   =  9.166137300098260  #TEST
refscf   = -76.02293995043653  #TEST
refccsd  = -0.208238532935749  #TEST
reftotal = -76.2311784833722   #TEST

compare_values(refnuc,   h2o.nuclear_repulsion_energy(),          3, "Nuclear repulsion energy") #TEST
compare_values(refscf,   get_variable("SCF total energy"),        5, "SCF energy")               #TEST
compare_values(refccsd,  get_variable("CCSD correlation energy"), 4, "CCSD contribution")        #TEST
compare_values(reftotal, get_variable("Current energy"),          7, "Total energy")             #TEST

clean()
