#! RHF-CCSD 6-31G** all-electron optimization of the H2O molecule

memory 250 mb

molecule h2o {
    O
    H 1 0.97
    H 1 0.97 2 103.0
}

set {
    basis 6-31G**

    r_convergence 11
    e_convergence 11
    d_convergence 11
}

optimize('ccsd')

refnuc   =   9.1654609427539  #TEST
refscf   = -76.0229306840181  #TEST
refccsd  = -0.20824772787315  #TEST
reftotal = -76.2311784118913  #TEST

compare_values(refnuc,   h2o.nuclear_repulsion_energy(),          3, "Nuclear repulsion energy") #TEST
compare_values(refscf,   get_variable("SCF total energy"),        5, "SCF energy")               #TEST
compare_values(refccsd,  get_variable("CCSD correlation energy"), 4, "CCSD contribution")        #TEST
compare_values(reftotal, get_variable("Current energy"),          7, "Total energy")             #TEST
