#! CVS-ADC(2)-x/cc-pvdz calculation of 10 water singlet excited states
#! tackling the Oxygen 1s edge core exitations

molecule h2o {
    O 0 0 0
    H 0 0 1.795239827225189
    H 1.693194615993441 0 -0.599043184453037
    symmetry c1
    units au
}

set {
    reference rhf
    basis cc-pvdz
    guess core
    num_core_orbitals 1
    roots_per_irrep [10]
}

# Run normal calculation of excitation energies (no properties)
energy_adc, wfn = energy('cvs-adc(2)-x', return_wfn=True)

# Alternative: Run computation of properties as well
properties('cvs-adc(2)-x', properties=["oscillator_strength", "dipole"])

ref_gs = -76.22940338791341                                                                      #TEST
ref_energies = [19.70171240249865, 19.77408334537015, 20.221837719052512,                        #TEST
                20.236988912341292, 20.50015926391799, 20.50350702872846,                        #TEST
                20.614638002902083, 20.84513256718409, 20.85211298121274,                        #TEST
                20.858327961198004]                                                              #TEST
ref_oscillator = [0.012570294222019097, 0.031922097813274534, 0.01739872734135962,               #TEST
                  0.021641463681883612, 0.06283747349242155, 0.10113259289466422,                #TEST
                  0.05470727934921514, 1.2922872004436838e-05, 1.400890096315252e-07,            #TEST
                  1.221454096458677e-08]                                                         #TEST
                                                                                                 #TEST
compare_values(ref_gs, energy_adc, 7, "CVS-ADC(2)-x GS energy")                                  #TEST
compare_arrays(np.array([ref_energies]).T, wfn.variable("CVS-ADC(2)-x excitation energies").np,  #TEST
               1e-5, "CVS-ADC(2)-x excitation energies")                                         #TEST
