#! CCSDT(Q) cc-pVDZ energy for the H2O molecule using MRCC.
#! This example builds up from CCSD. First CCSD, then CCSDT,
#! finally CCSDT(Q).

molecule h2o {
    o
    h 1 1.0
    h 1 1.0 2 104.5
}

set {
    basis cc-pvdz
    freeze_core true
    mrcc_restart 2
    qc_module mrcc
}

energy('ccsdt(q)')

compare_values(-76.226110861653, variable('MP2 TOTAL ENERGY'), 6, 'mp2')  #TEST
compare_values(-76.239620872765, variable('CCSDT[Q] TOTAL ENERGY'), 6, 'ccsdt[q]')  #TEST
compare_values(-76.239672099230, variable('CCSDT(Q) TOTAL ENERGY'), 6, 'ccsdt(q)')  #TEST

