#! UHF-CCSD(T)/cc-pVDZ $^{3}B@@1$ CH2 geometry optimization via analytic gradients

molecule ch2 {
  0 3
  C
  H 1 1.1
  H 1 1.1 2 109.0
}

set {
  reference uhf
  basis cc-pvdz
  dertype first
  # The next 3 options control the geometry optimization tolerances
  max_disp_g_convergence  1e-6
  max_force_g_convergence 1.0e-6
  max_energy_g_convergence    7
  e_convergence 10
  r_convergence 10
  qc_module ccenergy
}

if psi4.core.get_option("scf", "orbital_optimizer_package") != "INTERNAL":
    psi4.set_options({"e_convergence": 9, "d_convergence": 2e-8})

optimize('CCSD(T)')


