#! Example SAPT computation for ethene*ethine (i.e., ethylene*acetylene),
#! test case 16 from the S22 database

memory 250 mb

molecule dimer {
0 1
C   0.000000  -0.667578  -2.124659
C   0.000000   0.667578  -2.124659
H   0.923621  -1.232253  -2.126185
H  -0.923621  -1.232253  -2.126185
H  -0.923621   1.232253  -2.126185
H   0.923621   1.232253  -2.126185
--
0 1
C   0.000000   0.000000   2.900503
C   0.000000   0.000000   1.693240
H   0.000000   0.000000   0.627352
H   0.000000   0.000000   3.963929
units angstrom

no_reorient
symmetry c1
}

set globals {
    BASIS jun-cc-pVDZ
    SCF_TYPE DF
    FREEZE_CORE True
}

energy('sapt0')

Eelst = PsiMod.get_variable("SAPT ELST ENERGY")   #TEST
Eexch = PsiMod.get_variable("SAPT EXCH ENERGY")   #TEST
Eind  = PsiMod.get_variable("SAPT IND ENERGY")    #TEST
Edisp = PsiMod.get_variable("SAPT DISP ENERGY")   #TEST
ET    = PsiMod.get_variable("SAPT SAPT0 ENERGY")  #TEST

Eref = [ 85.189064196429,  -0.003378388762,  0.003704416103,  #TEST
         -0.000889316601,  -0.001672292164, -0.002235581423 ] #TEST

#PsiMod.print_variables() #TEST

compare_values(Eref[0], dimer.nuclear_repulsion_energy(), 9, "Nuclear Repulsion Energy") #TEST
compare_values(Eref[1], Eelst, 6, "SAPT0 Eelst") #TEST
compare_values(Eref[2], Eexch, 6, "SAPT0 Eexch") #TEST
compare_values(Eref[3], Eind, 6, "SAPT0 Eind")   #TEST
compare_values(Eref[4], Edisp, 6, "SAPT0 Edisp") #TEST
compare_values(Eref[5], ET, 6, "SAPT0 Etotal")   #TEST
