#! SCF DZ allene geometry optimzation, with Cartesian input

nucenergy =   59.2532646680161                                                                 #TEST
refenergy = -115.8302823663                                                                    #TEST

molecule allene {
  H -2.0  0.0  1.0
  H -2.0  0.0 -1.0
  C -1.5  0.0  0.0
  C  0.0  0.0  0.0
  C  1.5  0.0  0.0
  H  2.0  1.0  0.0
  H  2.0 -1.0  0.0
}

set {
  basis DZ
  e_convergence 10
  d_convergence 10
  dertype none
  scf_type pk
}

if psi4.core.get_option("scf", "orbital_optimizer_package") != "INTERNAL":
    psi4.set_options({"e_convergence": 9, "d_convergence": 5e-9})

thisenergy = optimize('scf')

compare_values(nucenergy, allene.nuclear_repulsion_energy(), 2, "Nuclear repulsion energy")    #TEST
compare_values(refenergy, thisenergy, 2, "Reference energy")                                   #TEST
