#! TCSCF cc-pVDZ  energy of asymmetrically displaced ozone, with Z-matrix input.

nucenergy =   68.259512887939   #TEST
refenergy = -224.359390149846   #TEST

molecule ozone {
   O
   O 1 1.29470102
   O 1 1.27450102 2 116.18610031
}

set basis cc-pVDZ
set docc [10, 1]
set socc [ 0, 2]

set mcscf {
    reference   twocon
    convergence 12
    ndiis       3
    docc        [10, 1]
    socc        [ 0, 2]
    maxiter 100
}

thisenergy = run_mcscf()

compare_values(nucenergy, ozone.nuclear_repulsion_energy(), 10, "Nuclear repulsion energy") #TEST
compare_values(refenergy, thisenergy, 10, "Reference energy")                               #TEST

clean()
