#! OLCCD cc-pVDZ gradient for the H2O molecule.


molecule h2o {
0 1
o
h 1 0.958
h 1 0.958 2 104.4776 
}

set {
  basis cc-pvdz
}

grad = gradient('olccd')


