#! OLCCD cc-pVDZ gradient for the H2O molecule.

# Test values are analytic from Jonathon's Psi4Numpy code, run 03/20, residual convergence 12. # TEST
ref = psi4.core.Matrix.from_array(np.array(                         #TEST
            [[ 0.000000000000,  0.000000000000,  0.013925122269],   #TEST
             [ 0.000000000000,  0.003259051830, -0.006962561134],   #TEST
             [ 0.000000000000, -0.003259051830, -0.006962561134]])) #TEST

molecule h2o {
0 1
o
h 1 0.958
h 1 0.958 2 104.4776 
}

set {
  basis cc-pvdz
}

grad = gradient('olccd')

compare_matrices(ref, grad, 5, "Analytic gradients")  #TEST

