#! DFT (hybrids) test of implementations in: hybrid_superfuncs.py

##ORCA v.4.0.1, cc-pVDZ, RI-MP2, no FC, GRID7
# PW6B95
# WB97X-D3
# HF-3c
# PBEh-3c
# PBE0
##Gaussian 09: 5D SP Int(Grid=99770)
# wb97x
# SOGGA11-X
##Gaussian 16: cc-pvdz 5D SP int=(grid=99770)
# MN15

# MISSING: 
#          "wpbe"     : build_wpbe_superfunctional,
#          "wpbe0"    : build_wpbe0_superfunctional,
#          "b5050lyp" : build_b5050lyp_superfunctional,

# more tests in tests/gcp/

molecule ne {
  0 1
  Ne
}

set df_scf_guess false
set basis cc-pvdz
set reference rks
set dft_radial_points 99
set dft_spherical_points 770 
set dft_block_scheme naive
set scf_type direct


edft = energy('pw6b95')
compare_values(-129.039641602003, edft, 4, 'Ne: PW6B95')   
clean()
edft = energy('pbe0')
compare_values(-128.805110236279, edft, 4, 'Ne: PBE0')   
clean()
edft = energy('wb97x-d')
compare_values(-128.887480845, edft, 4, 'Ne: WB97X-D')   
clean()
#edft = energy('wb97x-d3zero') # b97 params not in libxc v3
#compare_values(-128.887347888283, edft, 4, 'Ne: WB97X-D3(0)')   
#clean()
edft = energy('sogga11-x')
compare_values(-128.876075275, edft, 5, 'Ne: SOGGA11-X')   
clean()
edft = energy('mn15')
compare_values(-128.825480424, edft, 4, 'Ne: MN15')   
clean()

#edft = energy('b5050lyp')
#compare_values(, edft, 5, 'Ne: B5050LYP')   
#clean()
#edft = energy('wpbe')
#compare_values(, edft, 5, 'Ne: wPBE')   
#clean()
#edft = energy('wpbe0')
#compare_values(, edft, 5, 'Ne: wPBE0')   
#clean()
