#! A simple hf/cc-pvdz water calculation. The resulting wavefunction is written to a file, and then a new wavefunction is generated from that file. The  member variables of both wavefunctions should be identical in value


molecule mol {
0 1
O 0.0 0.0 0.0
H 1.0 0.0 0.0
H -.7 0.7 0.0
}

set {
    basis cc-pvdz
    guess sad
}

# make a wavefunction
e, wfn_old = energy('hf', return_wfn=True)

# write the wavefunction to file
wfn_old.to_file('my_wfn')

# read wavefunction from file
wfn_new = Wavefunction.from_file('my_wfn')

compare_wavefunctions(wfn_old, wfn_new, label='Serialization Check 1') #TEST

# alternatively store the dict representation of the wavefunction in memory
wfn_dict = wfn_old.to_file()

# make a wavefunction from the dict
wfn_new2 = Wavefunction.from_file(wfn_dict)

compare_wavefunctions(wfn_old, wfn_new2, label='Serialization Check 2') #TEST



