#! Compute the dipole polarizability for water with custom basis set.

molecule mol {
0 1
O 0.44260 -0.88720 -0.29490
H 0.73940 -0.26640 -0.96690
H 0.79240 -0.54630 0.53350
}

basis {
assign sto3g-redundant
[sto3g-redundant]
cartesian
****
H     0
S   3   1.00
      3.42525091             0.15432897
      0.62391373             0.53532814
      0.16885540             0.44463454
S   3   1.00
      3.42525091             0.15432897
      0.62391373             0.53532814
      0.16885540             0.44463454
****
O     0
S   3   1.00
    130.7093200              0.15432897
     23.8088610              0.53532814
      6.4436083              0.44463454
SP   3   1.00
      5.0331513             -0.09996723             0.15591627
      1.1695961              0.39951283             0.60768372
      0.3803890              0.70011547             0.39195739
S   3   1.00
    130.7093200              0.15432897
     23.8088610              0.53532814
      6.4436083              0.44463454
SP   3   1.00
      5.0331513             -0.09996723             0.15591627
      1.1695961              0.39951283             0.60768372
      0.3803890              0.70011547             0.39195739
****
}

set scf_type pk
set reference rks

psi4.properties("b3lyp", properties=["DIPOLE_POLARIZABILITIES", "DIPOLE"])

}

