#! SAPT(DFT) aug-cc-pVDZ interaction energy between Ne and Ar atoms.

Eref_nh = {"SAPT ELST ENERGY":  -0.10190449, #TEST
           "SAPT EXCH ENERGY":   0.36545706, #TEST
           "SAPT IND ENERGY":   -0.00840483, #TEST
           "SAPT DISP ENERGY":  -0.24398704, #TEST
           "CURRENT ENERGY":     0.01122234} #TEST

Eref_h = {"SAPT ELST ENERGY":  -0.10197193, #TEST
          "SAPT EXCH ENERGY":   0.36569812, #TEST
          "SAPT IND ENERGY":   -0.00840370, #TEST
          "SAPT DISP ENERGY":  -0.26658499, #TEST
          "CURRENT ENERGY":    -0.01126250} #TEST

molecule dimer {
  Ne
  --
  Ar 1 6.5
  units bohr
}

set {
    basis         aug-cc-pvdz
    scf_type      df
    sapt_dft_grac_shift_a 0.203293
    sapt_dft_grac_shift_b 0.138264
}

set SAPT_DFT_DO_HYBRID False
set SAPT_DFT_EXCH_DISP_SCALE_SCHEME none
energy('sapt(dft)', molecule=dimer)
for k, v in Eref_nh.items():                                  #TEST
    compare_values(v / 1000.0, psi4.variable(k), 6, k) #TEST

set SAPT_DFT_DO_HYBRID True
set SAPT_DFT_EXCH_DISP_SCALE_SCHEME disp
energy('sapt(dft)', molecule=dimer)
for k, v in Eref_h.items():                                  #TEST
    compare_values(v / 1000.0, psi4.variable(k), 6, k) #TEST
