#! MP2.5 cc-pVDZ gradient for the NO radical

ref.set(ref_vals)

memory 250 mb

molecule no {
0 2
n
o 1 1.158
}

set {
  basis cc-pvdz
  reference uhf
  guess gwh
}
gradient('mp2.5')


