#! check that methods can act on single atom

molecule {
0 2
H 0 0 0
}

if psi4.core.get_option("scf", "orbital_optimizer_package") != "INTERNAL":
    psi4.set_options({"e_convergence": 9, "d_convergence": 5e-9})

set reference UHF
scf = energy("hf/3-21g")
mp2 = energy("mp2/3-21g")
compare_values(scf, mp2, 7, "MP2 vs HF of H atom")

exception = 0
try:
    gradient("mp2/3-21g")
except Exception as e:
    if "There are no occupied orbitals with beta spin." in str(e):
        exception = 1
compare_values(1, exception, 1, "UKS MP2 grad raises exception")

ref_tot_dh = -0.4979584125381512
ref_dh     =  0.0

set reference UKS
Edft = energy("b2plyp/def2-sv(p)")



grad = gradient("b2plyp/def2-sv(p)")
compare_matrices(ref_grad, grad, 7, "B2PLYP gradient of H")
