#! EFP gradient many-EFP-fragment system (geom and E from libefp pol_3a test).
#! Tests passing of efp torques.

# If EFP potential was updated ref data needs updating too
# Note: previous gradient that was here can't be matched,
#   but Ilya had commented out the compare_matrices for it
#   upon updating EFP potentials a couple years ago, so
#   assuming ok, and copying in a new ref. --LAB

refEFP = psi4.Matrix.from_list([

molecule efp_spec {
efp h2o
   -3.394    -1.900    -3.700
   -3.524    -1.089    -3.147
   -2.544    -2.340    -3.445
--
efp nh3
   -5.515     1.083     0.968
   -5.161     0.130     0.813
   -4.833     1.766     0.609
--
efp nh3
    1.848     0.114     0.130
    1.966     0.674    -0.726
    0.909     0.273     0.517
--
efp nh3
   -1.111    -0.084    -4.017
   -1.941     0.488    -3.813
   -0.292     0.525    -4.138
--
efp ch3oh
   -2.056     0.767    -0.301
   -2.999    -0.274    -0.551
   -1.201     0.360     0.258
--
efp h2o
   -0.126    -2.228    -0.815
    0.310    -2.476     0.037
    0.053    -1.277    -1.011
--
efp h2o
   -1.850     1.697     3.172
   -1.050     1.592     2.599
   -2.666     1.643     2.614
--
efp ch3oh
    1.275    -2.447    -4.673
0.709, 	-3.191,,-3.592   
    2.213    -1.978    -4.343
--
efp h2o
   -5.773    -1.738    -0.926
   -5.017    -1.960    -1.522
   -5.469    -1.766     0.014
}

set efp_disp no
set efp_exch no
set efp_elst_damping screen
set efp_ind_damping off
set efp dertype first

energy('efp')

torq = variable("EFP TORQUE")  # replaces get_efp_torque()

