# pg62s optimization

memory 6000 MB

molecule dimer {
0 1
C       0.839772    6.869895    5.549629
C      -0.065520    6.724772    6.569373
H       0.226620    6.831940    7.467719
C      -1.402717    6.423363    6.316171
H      -2.005145    6.295357    7.039357
C      -1.846230    6.313218    5.041491
H      -2.767785    6.147257    4.876736
C      -0.949188    6.442713    3.945439
C      -1.406666    6.318428    2.606591
H      -2.330637    6.173305    2.441837
C      -0.547983    6.402525    1.553896
H      -0.873414    6.368291    0.662487
C       0.822506    6.539461    1.800161
H       1.419513    6.555090    1.061367
C       1.342914    6.653327    3.085247
C       0.431848    6.669700    4.179564
C       2.165891    7.335032    5.950243
C       3.170351    7.770401    6.441038
C       4.337319    8.239260    7.098322
C       4.320173    8.356102    8.485729
C       5.463043    8.801890    9.151685
H       5.457386    8.895662   10.096856
C       6.598016    9.104787    8.442373
H       7.379982    9.392801    8.898483
C       6.602258    8.992410    7.075777
C       5.490087    8.571182    6.376870
H       5.508765    8.507179    5.428231
C       2.967304    8.378429   10.476659
H       3.175478    9.336984   10.608462
H       3.559774    7.842590   11.061104
C       1.515679    8.103812   10.804434
H       1.353523    8.319635   11.756542
H       1.337024    7.137814   10.679567
C       0.535731    8.907569    9.939038
H       0.675437    9.865380   10.091653
H      -0.384527    8.667186   10.178366
H       0.691641    8.702909    8.992133
C       7.928376    9.282656    5.058833
H       7.452574   10.046970    4.649548
H       7.563997    8.439455    4.692905
C       9.438512    9.380893    4.809100
H       9.705138   10.312657    5.010274
H       9.881789    8.804123    5.480258
C       9.924272    9.091392    3.697440
H       9.735895    8.151442    3.492798
H      10.894143    9.232793    3.719986
H       9.527249    9.662208    3.007205
C       2.782578    6.654071    3.201442
C       3.965573    6.523833    3.159820
C       5.383730    6.266332    3.097387
C       6.091689    5.889757    4.252403
H       5.650475    5.834685    5.093519
C       7.428356    5.602488    4.143145
C       8.063721    5.656816    2.934366
H       8.988104    5.450667    2.875401
C       7.364601    6.010321    1.800161
H       7.810175    6.030415    0.960779
C       6.039247    6.332568    1.867797
C       5.868075    6.720307   -0.497732
H       6.120913    5.799706   -0.761340
H       6.680740    7.286658   -0.501201
C       4.813649    7.282193   -1.444638
H       4.587915    8.206514   -1.174093
H       3.993147    6.733703   -1.385673
C       5.331345    7.282937   -2.904884
H       6.170761    7.784541   -2.953443
H       4.665928    7.704910   -3.487595
H       5.483484    6.360104   -3.197974
C       7.636532    5.358384    6.550296
H       7.045240    4.578441    6.708114
H       7.103868    6.187445    6.661289
C       8.839974    5.343500    7.526684
H       9.335928    4.492856    7.417426
H       9.453951    6.083999    7.294293
C       8.452733    5.475227    8.844721
H       7.971804    6.320660    8.960916
H       9.245188    5.468529    9.422229
H       7.864446    4.729518    9.089251
O       3.152616    8.007807    9.092720
O       7.815304    9.313169    6.479192
O       5.248130    6.725516    0.811633
O       8.222873    5.298846    5.237462
units angstrom
}


set globals {
    reference rhf
    basis aug-cc-pVDZ
    basis_guess 3-21G
    diis true
    maxiter 1000
    e_convergence 8
    guess sad
    mom_start 10
    dft_spherical_points 302
    dft_radial_points 100
    scf_type df
}

optimize('b3lyp-d3')

