#! density fitted REMP/cc-pVDZ energies for the CH3 radical

test_dict = { "0.00": -39.68419847959576,  #TEST
              "0.10": -39.68080529893142,  #TEST
              "0.20": -39.67771577720799,  #TEST
              "0.30": -39.67486705961197,  #TEST
              "1.00": -39.65922066911472 } #TEST

ESCF = -39.53295512364772


molecule ch3 {
units bohr
0 2
C    0.00000000000000      0.00000000000000      0.00000000000000      
H    1.02022495761968     -1.76708146174709      0.00000000000000      
H    1.02022495761968      1.76708146174709      0.00000000000000      
H   -2.04044991523936      0.00000000000000      0.00000000000000      
}



set {
  reference uhf
  basis def2-SVP
  df_basis_scf def2-universal-jkfit
  df_basis_cc def2-SVP-ri
  freeze_core true
  cc_type df
  mp2_type df
}  

set{
  e_convergence 1.0E-9
  r_convergence 1.0E-8
}

#Avals=[0.00, 0.10, 0.20, 0.30, 1.00]


#for A in Avals:
#     psi4.print_out("running step %5.2f" % A)
#     set remp_A=$A
#     e_remp=energy('remp2')
#     compare_values(test_dict[remp_A], get_variable("REMP2 TOTAL ENERGY"), 6, "REMP2 Total Energy") #TEST



set remp_A=0.00
e_remp=energy('remp2')
compare_values(ESCF, variable("SCF TOTAL ENERGY"), 6, "DF-SCF Energy") #TEST
compare_values(test_dict["0.00"], variable("REMP2 TOTAL ENERGY"), 7, "DF-REMP(0.00) Total Energy") #TEST


set remp_A=0.10
e_remp=energy('remp2')
compare_values(test_dict["0.10"], variable("REMP2 TOTAL ENERGY"), 7, "DF-REMP(0.10) Total Energy") #TEST

set remp_A=0.20
e_remp=energy('remp2')
compare_values(test_dict["0.20"], variable("REMP2 TOTAL ENERGY"), 7, "DF-REMP(0.20) Total Energy") #TEST

set remp_A=0.30
e_remp=energy('remp2')
compare_values(test_dict["0.30"], variable("REMP2 TOTAL ENERGY"), 7, "DF-REMP(0.30) Total Energy") #TEST

set remp_A=1.00
e_remp=energy('remp2')
compare_values(test_dict["1.00"], variable("REMP2 TOTAL ENERGY"), 7, "DF-REMP(1.00) Total Energy") #TEST

