molecule h2o {
0 1
O    0.000000000000    0.000000000000   -0.075791843589
H    0.866811828967    0.000000000000    0.601435779270
H   -0.866811828967    0.000000000000    0.601435779270
O    0.000000000000    8.000000000000   -0.075791843589
H    0.866811828967    8.000000000000    0.601435779270
H   -0.866811828967    8.000000000000    0.601435779270
O    0.000000000000    16.000000000000   -0.075791843589
H    0.866811828967    16.000000000000    0.601435779270
H   -0.866811828967    16.000000000000    0.601435779270
O    0.000000000000    24.000000000000   -0.075791843589
H    0.866811828967    24.000000000000    0.601435779270
H   -0.866811828967    24.000000000000    0.601435779270
O    0.000000000000    32.000000000000   -0.075791843589
H    0.866811828967    32.000000000000    0.601435779270
H   -0.866811828967    32.000000000000    0.601435779270
symmetry c1
}

plugin_load('./plugin_libfock.so')

set {
#debug 1
print 2
scf_type df
basis aug-cc-pvtz 
ri_basis_scf aug-cc-pvtz-jkfit
solver_n_root 5
solver_n_guess 10
solver_min_subspace 20
solver_max_subspace 25 
}

energy('scf')
plugin('./plugin_libfock.so')
set schwarz_cutoff 0.00000000001 
plugin('./plugin_libfock.so')
