molecule h2o {
0 1
O    0.000000000000    0.000000000000   -0.075791843589
H    0.866811828967    0.000000000000    0.601435779270
H   -0.866811828967    0.000000000000    0.601435779270
symmetry c1
}

plugin_load('./plugin_libfock.so')

set {
print 2
scf_type direct
solver_maxiter 4
basis sto-3g 
solver_precondition false
cphf_tasks [Polarizability]
}

energy('scf')
set module rcphf
plugin('./plugin_libfock.so')

clean()
