molecule h2o {
0 1
O    0.000000000000    0.000000000000   -0.075791843589
H    0.866811828967    0.000000000000    0.601435779270
H   -0.866811828967    0.000000000000    0.601435779270
symmetry c1
}

plugin_load('./plugin_libfock.so')

set {
print 2
scf_type direct
basis sto-3g 
ri_basis_scf aug-cc-pvdz-jkfit
solver_n_root 5
solver_n_guess 10
solver_min_subspace 20
solver_max_subspace 25 
}

energy('scf')
plugin('./plugin_libfock.so')
