$molecule
0 1
O
H 1 1.0
H 1 1.05 2 104.5
$end

$rem
basis sto-3g
exchange hf
cis_n_roots 2
sym_ignore true
$end
