#! UHF-ODC-12 and RHF-ODC-12 single-point energy for H2O.
#! This performs a simultaneous update of orbitals and cumulants, using DIIS extrapolation.
#! Four-virtual integrals are handled in the AO basis, where integral transformation is avoided.
#!
#! In the next RHF-ODC-12 computation, AO_BASIS=NONE is used, where four-virtual integrals
#! are transformed into MO basis.
#!
#! The last two RHF-ODC-12 analytic gradient computations for H2O use
#! AO_BASIS=DISK and AO_BASIS=NONE, respectively. 

memory 250 mb

# UHF-ODC-12                            #TEST
refscf_uhf      = -76.0266030959050312  #TEST 
refmp2_uhf      = -76.230809106995821   #TEST
refodc12_uhf    = -76.241636548124134   #TEST

# RHF-ODC-12                            #TEST
refscf_rhf      = -76.0266030959050596  #TEST
refmp2_rhf      = -76.230809106995864   #TEST
refodc12_rhf    = -76.241636548124106   #TEST 

# RHF-ODC-12 gradients
ref_vals = [
           [-0.000463315203,     0.011184720362,     0.000000000000],
           [-0.000214140480,    -0.007910878984,     0.000000000000],
           [ 0.000677455683,    -0.003273841378,     0.000000000000]  
           ]
ref_grad = psi4.Matrix(3, 3)
ref_grad.set(ref_vals)


molecule h2o {
0 1
O  -1.551007  -0.114520   0.000000
H  -1.934259   0.762503   0.000000
H  -0.599677   0.040712   0.000000
}

set globals {
    r_convergence 12
    d_convergence 12
    algorithm   simultaneous
    basis       cc-pvdz
    dcft_functional odc-12
}

set ao_basis disk
energy('dcft')
compare_values(refscf_uhf, get_variable("SCF TOTAL ENERGY"), 10, "UHF Energy");                                       #TEST
compare_values(refmp2_uhf, get_variable("MP2 TOTAL ENERGY"), 10, "UHF-MP2 Energy");                                             #TEST
compare_values(refodc12_uhf, get_variable("CURRENT ENERGY"), 10, "UHF-ODC-12 Total Energy (simultaneous, ao_basis=disk)");     #TEST
clean()

set reference rhf
set ao_basis disk
energy('dcft')
compare_values(refscf_rhf, get_variable("SCF TOTAL ENERGY"), 10, "RHF Energy");                                       #TEST
compare_values(refmp2_rhf, get_variable("MP2 TOTAL ENERGY"), 10, "RHF-MP2 Energy");                                             #TEST
compare_values(refodc12_rhf, get_variable("CURRENT ENERGY"), 10, "RHF-ODC-12 Total Energy (simultaneous, ao_basis=disk)");     #TEST
clean()

set reference rhf
set ao_basis none
energy('dcft')
compare_values(refscf_rhf, get_variable("SCF TOTAL ENERGY"), 10, "RHF Energy");                                       #TEST
compare_values(refmp2_rhf, get_variable("MP2 TOTAL ENERGY"), 10, "RHF-MP2 Energy");                                             #TEST
compare_values(refodc12_rhf, get_variable("CURRENT ENERGY"), 10, "RHF-ODC-12 Total Energy (simultaneous, ao_basis=none)");     #TEST
clean()

set reference rhf
set ao_basis disk
gradient('dcft')
grad = psi4.wavefunction().gradient() 
compare_matrices(ref_grad, grad, 8, "RHF-ODC-12 analytic gradient (simultaneous, ao_basis=disk)") 
clean()

set reference rhf
set ao_basis none
gradient('dcft')
grad = psi4.wavefunction().gradient() 
compare_matrices(ref_grad, grad, 8, "RHF-ODC-12 analytic gradient (simultaneous, ao_basis=none)") 
