#! OMP2.5 cc-pVDZ energy for the H2O molecule.
# OMP2.5 energy from Jonathon's Psi4Numpy code, run 03/20, residual convergence 12. # TEST
refnuc      =  25.59060766929188 #TEST
refscf      = -129.25245637508348 #TEST
refmp3      = -129.58077576726413 #TEST
refomp3     = -129.58890164511720 #TEST

molecule {
0 2
n
o 1 1.158
}

set {
  basis cc-pvdz
  guess gwh
  reference rohf
}

energy('omp2.5')

compare_values(refnuc, variable("NUCLEAR REPULSION ENERGY"), 5, "Nuclear Repulsion Energy (a.u.)");  #TEST
compare_values(refscf, variable("SCF TOTAL ENERGY"), 6, "SCF Energy (a.u.)");                        #TEST
# suspect for ROHF compare_values(refmp3, variable("MP2.5 TOTAL ENERGY"), 6, "MP2.5 Total Energy (a.u.)");               #TEST
compare_values(refomp3, variable("OMP2.5 TOTAL ENERGY"), 6, "OMP2.5 Total Energy (a.u.)");               #TEST
