#! OLCCD cc-pVDZ freqs for C2H2

molecule {
0 1
C            0.000000000000     0.000000000000     0.613925250708
C            0.000000000000    -0.000000000000    -0.613925250708
H            0.000000000000    -0.000000000000     1.692424754459
H            0.000000000000    -0.000000000000    -1.692424754459
}

set {
  basis cc-pvdz
  guess sad
  mo_maxiter 200
}

if psi4.core.get_option("scf", "orbital_optimizer_package") != "INTERNAL":
    psi4.set_options({"e_convergence": 9, "d_convergence": 5e-8})



cepa_e, cepa_wfn = frequencies('olccd', dertype=0, return_wfn=True)
