#! OMP2 cc-pVDZ energy for the NO molecule.

refnuc      =  25.59060766929188 #TEST
refscf      = -129.25910534911733 #TEST
refomp2     = -129.59358382057701 #TEST

molecule {
0 2
N
O 1 1.158
}

set {
  basis cc-pvdz
  df_basis_scf cc-pvdz-jkfit
  df_basis_cc cc-pvdz-ri
  scf_type df
  guess sad
  reference uhf
  mp2_type df
}
energy('omp2')

# Warning! DFOCC orbitals converge so slowly, we can't be sure we have the OMP2 energy to 6 decimals.
compare_values(refnuc, variable("NUCLEAR REPULSION ENERGY"), 6, "Nuclear Repulsion Energy (a.u.)");  #TEST
compare_values(refscf, variable("SCF TOTAL ENERGY"), 6, "DF-HF Energy (a.u.)");                        #TEST
compare_values(refomp2, variable("OMP2 TOTAL ENERGY"), 5, "DF-OMP2 Total Energy (a.u.)");               #TEST

