#! Plugin_test_matrix test input
memory 250 mb

molecule n2 {
  N
  N 1 R

  R = 1.11
}

plugin_load("./plugin_test_matrix.so")

set {
  matrix_size 1810
  tile_size 181
}

plugin("plugin_test_matrix.so")
