
# PYTHONPATH must include directory above plugin directory.
#     Define either externally or here, then import plugin.
sys.path.insert(0, './..')
import efp

molecule {
O
H 1 R
H 1 R 2 A

R = .9
A = 104.5
}

set {
  basis sto-3g
  efp_elst no
  efp_disp no
  efp_disp_damping off
}

set efp {
  print 1
}

energy('efp')

efp.exampleFN()

