
# PYTHONPATH must include directory above plugin directory.
#     Define either externally or here, then import plugin.
sys.path.insert(0, './..')
import efp

molecule {
O
H 1 R
H 1 R 2 A

R = .9
A = 104.5
}

molecule efp_spec {
He    -3.394    -1.900    -3.700 #/* H2O */
He    -3.524    -1.089    -3.147
He    -2.544    -2.340    -3.445
--
He    -5.515     1.083     0.968 #/* NH3 */
He    -5.161     0.130     0.813
He    -4.833     1.766     0.609
--
He     1.848     0.114     0.130 #/* NH3 */
He     1.966     0.674    -0.726
He     0.909     0.273     0.517
--
He    -1.111    -0.084    -4.017 #/* NH3 */
He    -1.941     0.488    -3.813
He    -0.292     0.525    -4.138
--
He    -2.056     0.767    -0.301 #/* CH3OH */
He    -2.999    -0.274    -0.551
He    -1.201     0.360     0.258
--
He    -0.126    -2.228    -0.815 #/* H2O */
He     0.310    -2.476     0.037
He     0.053    -1.277    -1.011
--
He    -1.850     1.697     3.172 #/* H2O */
He    -1.050     1.592     2.599
He    -2.666     1.643     2.614
--
He     1.275    -2.447    -4.673 #/* CH3OH */
He     0.709    -3.191    -3.592
He     2.213    -1.978    -4.343
--
He    -5.773    -1.738    -0.926 #/* H2O */
He    -5.017    -1.960    -1.522
He    -5.469    -1.766     0.014
no_reorient
no_com
}

set {
  basis sto-3g
  efp_disp no
  efp_exch no
  efp_gradient yes
  frags ['h2o_l', 'nh3_l', 'nh3_l', 'nh3_l', 'ch3oh_l', 'h2o_l', 'h2o_l', 'ch3oh_l', 'h2o_l']
}

set efp {
  print 1
}

energy('efp')

efp.exampleFN()

compare_values(-0.0126416598208905, get_variable('CURRENT ENERGY'), 6, 'EFP Total')  #TEST

