#! All-electron MP2 6-31G** geometry optimization of water

nucenergy = 9.160896116712635  #TEST
refenergy = -76.2224485024  #TEST

molecule h2o {
  O
  H 1 1.0
  H 1 1.0 2 106.0
}

set {
  basis 6-31G**
  reference rhf
  d_converge 9
  e_converge 9
}

optimized_energy = optimize('mp2')

compare_values(nucenergy, h2o.nuclear_repulsion_energy(), 4, "Nuclear repulsion energy")    #TEST
compare_values(refenergy, optimized_energy, 6, "Reference energy")                          #TEST

clean()
