# pg62s optimization

memory 6000 MB

molecule dimer {
0 1
C      -0.933795    5.105165    7.391751
C      -0.933795    3.694945    7.391751
C       0.236739    2.968973    7.083268
H       0.205969    2.021038    7.054687
C       1.408521    3.613169    6.824064
H       2.201129    3.115836    6.655532
C       1.435925    5.008369    6.808295
H       2.260172    5.443952    6.625965
C       0.315961    5.786076    7.047788
C       0.443143    7.192959    7.046802
C       0.674712    8.377878    7.035961
C       0.832161    9.798112    6.984712
C       0.568773   10.602522    8.123041
H       0.332520   10.176952    8.940076
C       0.642140   11.947655    8.086575
H       0.475643   12.455001    8.872072
C       0.966437   12.605202    6.868415
C       1.210019   11.830832    5.721215
H       1.436306   12.251395    4.900238
C       1.123325   10.479023    5.792176
H       1.263538    9.971678    5.001751
C       1.325616   14.634584    5.705446
H       0.634976   14.454343    5.019491
H       2.197063   14.310818    5.362469
C       1.400996   16.123243    5.984361
H       0.529674   16.431989    6.338180
H       2.087525   16.290133    6.679186
C       1.735259   16.895944    4.781970
H       1.758068   17.850554    5.003722
H       1.057075   16.737398    4.092073
H       2.613059   16.617237    4.447863
O       0.998453   13.960349    6.910794
C      -2.104329    2.968973    7.700233
H      -2.073560    2.021038    7.728814
C      -3.276112    3.613169    7.959437
H      -4.068719    3.115836    8.127969
C      -3.303516    5.008369    7.975206
H      -4.127762    5.443952    8.157536
C      -2.183551    5.786076    7.735713
C      -2.310734    7.192959    7.736699
C      -2.542303    8.377878    7.747540
C      -2.699752    9.798112    7.798790
C      -2.436363   10.602522    6.660460
H      -2.200111   10.176952    5.843425
C      -2.509731   11.947655    6.696926
H      -2.343234   12.455001    5.911429
C      -2.834028   12.605202    7.915087
C      -3.077609   11.830832    9.062286
H      -3.303897   12.251395    9.883263
C      -2.990915   10.479023    8.991325
H      -3.131129    9.971678    9.781750
C      -3.193206   14.634584    9.078055
H      -2.502566   14.454343    9.764010
H      -4.064654   14.310818    9.421033
C      -3.268586   16.123243    8.799140
H      -2.397264   16.431989    8.445321
H      -3.955116   16.290133    8.104315
C      -3.602849   16.895944   10.001531
H      -3.625659   17.850554    9.779779
H      -2.924666   16.737398   10.691428
H      -4.480650   16.617237   10.335638
O      -2.866044   13.960349    7.872707
units angstrom
}

set globals {
    reference rhf
    basis aug-cc-pVDZ
    basis_guess 3-21G
    diis true
    maxiter 1000
    e_convergence 8
    guess sad
    mom_start 10
    dft_spherical_points 302
    dft_radial_points 100
    scf_type df
}

optimize('b3lyp-d3')

