molecule {
1 2
H
H 1 1.0
}

set reference uhf
set guess core
set scf_type pk
set df_scf_guess false

basis {
assign test

[test]
spherical
****
H 0
D 1 1.0
 1.0 1.0
****
}
energy('scf')
refE = 2.13041388298912
compare_values(refE, variable("SCF TOTAL ENERGY"), 6, "H2+ energy, D basis")
