#! RHF-CC2-LR/cc-pVDZ static polarizabilities of HOF molecule.

molecule hof {
  0 1
  O
  H 1 0.97
  F 1 0.97 2 103.0
}

set {
  basis "cc-pVDZ"
}

properties('cc2',properties=['polarizability'])
ref_static_polar = 5.240960398531
