#! RHF-CC2-LR/cc-pVDZ static polarizabilities of HOF molecule.

molecule hof {
  0 1
  O
  H 1 0.97
  F 1 0.97 2 103.0
}

set {
  basis "cc-pVDZ"
}

wfn = properties('cc2',properties=['polarizability'], return_wfn=True)[1]


