#! Analytic SVWN frequencies, compared to finite difference values

molecule {
    O            0.000000000000    -0.000000000000    -0.076528551557
    H            0.000000000000    -0.769841603721     0.607281824213
    H           -0.000000000000     0.769841603721     0.607281824213
}

set {
  d_convergence 12
  dft_spherical_points 302
  dft_radial_points    75
  scf_type pk
}

if psi4.core.get_option("scf", "orbital_optimizer_package") == "INTERNAL":
    tol = 0.1
else:
    psi4.set_options({"e_convergence": 9, "d_convergence": 7e-8})
    tol = 0.12

method = 'SVWN/sto-3g'

Efd, fdwfn = freq(method, dertype=1, return_wfn=True)
Ean, anwfn = freq(method, return_wfn=True)
fdwfn.frequencies().print_out()
anwfn.frequencies().print_out()

