#! Transition-state optimizations of HOOH to both torsional transition states.
TORS_ENERGY      = -150.78530699  #TEST
ZERO_TORS_ENERGY = -150.77391414  #TEST

# Optimization to 180 degree torsion from 120
molecule h2o {
 H
 O 1 0.95
 O 2 1.40 1 105.0
 H 3 0.95 2 105.0 1 120.0
}
set globals {
  basis cc-pvdz
  docc [5, 4]
  opt_type ts
  intrafrag_step_limit 0.1
}

thisenergy = optimize('scf')
compare_values(TORS_ENERGY, thisenergy, 6, "cc-pVDZ RHF transition-state opt. of HOOH (dihedral=180), energy") #TEST

# Optimization to 0 degree torsion from 100
molecule h2o {
 H
 O 1 0.95
 O 2 1.40 1 105.0
 H 3 0.95 2 105.0 1 100.0
}

thisenergy = optimize('scf')
compare_values(ZERO_TORS_ENERGY, thisenergy, 6, "cc-pVDZ RHF transition-state opt. of HOOH (dihedral=0), energy") #TEST

