#! RHF-CC2-LR/cc-pVDZ optical rotation of H2O2.  gauge = length, omega=
#! (589 355 nm)

molecule h2o2 {
  0 1
  O
  O 1 1.39
  H 1 0.94 2 102.3
  H 2 0.94 1 102.3 3 -50.0
}

set {
  basis "cc-pVDZ"
  freeze_core true
  gauge length
  omega [589, 355, nm]
}

if psi4.core.get_option("scf", "orbital_optimizer_package") == "INTERNAL":
    optrot_tol = 5
else:
    optrot_tol = 5e-3
    psi4.set_options({"e_convergence": 10, "d_convergence": 8e-9})

wfn = properties('cc2',properties=['rotation'], return_wfn=True)[1]



