#! CASSCF/6-31G** energy point

molecule {
O
H 1 1.00
H 1 1.00 2 103.1
}

set {
    reference       rhf
    mcscf_type      df
    frozen_docc     [1, 0, 0, 0]
    active          [3, 0, 1, 2] 
    basis           6-31G**
}

casscf_energy = energy('casscf')

compare_values(-76.073736690209159, casscf_energy, 6, 'FZC CASSCF Energy')  #TEST
