#! RHF cc-pVQZ energy for the BH molecule, with Cartesian input.

nucenergy =   2.645886245000000 #TEST
refenergy = -25.10354687361508  #TEST

molecule bh {
    b      0.0000        0.0000        0.0000
    h      0.0000        0.0000        1.0000
}

set globals = {
    scf_type   direct
    basis      cc-pVQZ
    e_convergence 10
}

thisenergy = energy('scf')

compare_values(nucenergy, bh.nuclear_repulsion_energy(), 9, "Nuclear repulsion energy") #TEST
compare_values(refenergy, thisenergy, 9, "Reference energy")                            #TEST
