#! OLCCD cc-pVDZ energy with ROHF initial guess for the NO radical

# OLCCD energy from Jonathon's Psi4Numpy code, run 03/20, residual convergence 12. # TEST
refnuc      =   25.59060766929188  #TEST
refscf      = -129.25292774600291 #TEST
refocepa    = -129.67618875068277 #TEST

molecule no {
0 2
n
o 1 1.158
}

set {
  basis cc-pcvdz
  reference rohf
  guess gwh
}
energy('olccd')

compare_values(refnuc, variable("NUCLEAR REPULSION ENERGY"), 6, "Nuclear Repulsion Energy (a.u.)"); #TEST
compare_values(refscf, variable("SCF TOTAL ENERGY"), 6, "SCF Energy (a.u.)");             #TEST
compare_values(refocepa, variable("OLCCD TOTAL ENERGY"), 6, "OCEPA(0) Total Energy (a.u.)");                   #TEST
