#! Test FNO-DF-CCSD(T) energy
molecule h2o {
0 1
O
H 1 1.0 
H 1 1.0 2 104.5
symmetry c1
}

set {
  basis aug-cc-pvdz
  freeze_core         true
  e_convergence      1e-12
  d_convergence      1e-12
  r_convergence      1e-12
  cholesky_tolerance 1e-12
  nat_orbs            true
  occ_tolerance       1e-4
  scf_type              cd
  cc_type               cd
  df_ints_io          save
}
en,wfn = energy('scf',return_wfn=True)
energy('ccsd(t)',ref_wfn=wfn)
edfccsd  = variable("CCSD CORRELATION ENERGY")
edfccsdt = variable("CCSD(T) CORRELATION ENERGY")



clean()
