#! Generation of NBO file

molecule {
O
H 1 1.0
H 1 1.0 2 104.5
}

set scf_type pk
set basis cc-pvdz
set r_convergence 12

energy, wfn = energy('hf', return_wfn = True)
NBOWriter(wfn).write('input.47')
compare_values( -76.02141844, variable('current energy'), 6, 'WATER')  #TEST
