#! ADC(3)/cc-pvdz calculation of 10 water singlet excited states

molecule h2o {
    O 0 0 0
    H 0 0 1.795239827225189
    H 1.693194615993441 0 -0.599043184453037
    symmetry c1
    units au
}

set {
    reference rhf
    basis cc-pvdz
    guess core
    roots_per_irrep [10]
}

# Run calculation of excitation energies and properties
energy_adc, wfn = properties('adc(3)', properties=["oscillator_strength", "dipole"],
                             return_wfn=True)

