#! ROHF-CCSD/cc-pVDZ 3B1 CH2 geometry optimization via analytic gradients

memory 250 mb

molecule ch2 {
  0 3
  C
  H 1 1.1
  H 1 1.1 2 109.0
}

set globals {
  reference rohf
  basis cc-pvdz
}

gradient('ccsd')
analytic_grad = PsiMod.get_gradient()

gradient('ccsd', dertype=0)
findif_grad = PsiMod.get_gradient()


set findif points 5

gradient('ccsd', dertype=0)
findif_grad = PsiMod.get_gradient()

