#! CCSD Response for H2O2

molecule h2o2 {
    O        -0.054730547952    -1.312218696095    -0.093235962587
    O         0.054730547952     1.312218696095    -0.093235962587
    H         0.662345455220    -1.720870706405     1.479722385924
    H        -0.662345455220     1.720870706405     1.479722385924
units bohr
noreorient
}

set {
  freeze_core false
  omega [589, nm]
  basis cc-pVDZ
}

wfn = properties('ccsd',properties=['roa_tensor'], return_wfn=True)[1]

refnre     =   38.2539713018987797
refscf     = -150.7791838679225975
refccsd    = -151.177798696080004
refoverlap =    0.89181921409
ref589dipole = psi4.core.Matrix.from_list(
    [[5.442456938699039, -0.829631300710540, 0],
     [-0.829631300710540, 12.750805638017125, 0],
     [0, 0, 8.574680089100873]]
)
ref589vel = psi4.core.Matrix.from_list(
    [[0.444271559563171, -0.343249618294797, 0],
     [-0.220426046552221, 0.013132320723532, 0],
     [0, 0, -0.470902367218709]]
)
ref589mvg = psi4.core.Matrix.from_list(
    [[0.011768389251626, -0.011392294704355, 0],
     [-0.022950097311328, 0.000612244233077, 0],
     [0, 0, -0.009588468041791]]
)
ref589quadpol = np.array(
   [
    [[0, 0, 3.900095508714804],
     [0, 0, -5.834071939307475],
     [3.900095508714804, -5.834071939307475, 0]
    ],
    [[0, 0, -2.378762400770680],
     [0, 0, 6.852406904125282],
     [-2.378762400770680, 6.852406904125282, 0]
    ],
    [[-4.548246648403921, -5.301116089280549, 0],
     [-5.301116089280549, -1.354243751855453, 0],
     [0, 0, 5.902490425701187]
    ]
   ]
)


compare_values(refnre, h2o2.nuclear_repulsion_energy(), 6, "Nuclear Repulsion Energy") # TEST
compare_values(refscf, wfn.variable("SCF TOTAL ENERGY"), 6, "SCF Energy") # TEST
compare_values(refccsd, wfn.variable("CCSD TOTAL ENERGY"), 6, "CCSD Energy") # TEST
compare_values(refoverlap, wfn.variable("LEFT-RIGHT CCSD EIGENVECTOR OVERLAP"), 5, "Left-Right CCSD Overlap") # TEST
compare_values(ref589dipole, wfn.variable("CCSD DIPOLE POLARIZABILITY TENSOR @ 589NM"), 5, "Dipole Polarizability Tensor (589nm)") # TEST
compare_values(ref589vel, wfn.variable("CCSD OPTICAL ROTATION TENSOR (VEL) @ 589NM"),  3, "CCSD rotation tensor @ 589nm in velocity gauge") # TEST    
compare_values(ref589mvg, wfn.variable("CCSD OPTICAL ROTATION TENSOR (MVG) @ 589NM"),  3, "CCSD rotation tensor @ 589nm in modified velocity gauge") # TEST    
compare_values(ref589quadpol, wfn.variable("CCSD QUADRUPOLE POLARIZABILITY TENSOR @ 589NM"), 3, "CCSD quadrupole polarizability @ 589nm") # TEST 

