molecule {
0 1
He
symmetry c1
}

plugin_load("../plugin_omega.so")

set globals {
  scf_type direct
  basis cc-pvdz 
  ri_basis_scf cc-pvdz-ri
  reference uks
  dft_functional wB97
  dft_spherical_points 110
  dft_radial_points 50
  omega_procedure ip
  d_converge 5
  e_converge 7
}

energy('scf')
plugin("../plugin_omega.so")
