molecule {
0 1
O
H 1 1.0
H 1 1.0 2 104.5
symmetry c1
}

plugin_load("../plugin_omega.so")

set globals {
  basis cc-pvdz 
  ri_basis_scf cc-pvdz-ri
  reference uks
  dft_functional wB97
  dft_order_spherical 21 
  dft_n_radial 25 
  omega_procedure ip
  d_converge 5
  e_converge 7
  scf_type direct
}


#energy('scf')
set dft_functional s_x
energy('scf')
 
#plugin("../plugin_omega.so")
