#! Water with sto-3g

refenergy = -74.9631013239886386

molecule water {
    symmetry c1
    0 1
    8 -0.066308 -0.083391 0.042846
    1 0.889752 -0.042018 0.021589
    1 -0.341116 0.73212 -0.376167
}

set = {
    basis sto-3g
    reference rhf
    scf_type direct
    df_scf_guess False
    brianqc_enable True
}

thisenergy = energy('scf')

