#! MP3 cc-pVDZ gradient for the NO radical

ref = psi4.Matrix.from_list([                                 #TEST
        [ 0.000000000000,  0.000000000000, -0.147430133149],  #TEST
        [ 0.000000000000,  0.000000000000,  0.147430133149]   #TEST
      ])                                                      #TEST

molecule no {
0 2
n
o 1 1.158
}

set {
  basis cc-pvdz
  reference uhf
  guess gwh
  mp_type conv
}

grad = gradient('mp3')

compare_matrices(ref, grad, 5, "Analytic gradients")  #TEST

