molecule {
1 1
He
H 1 1.0
}

set reference rhf
set guess core
set scf_type pk
set df_scf_guess false

basis {
assign test

[test]
spherical
****
H 0
F 1 1.0
 1.0 1.0
****
He 0
F 1 1.0
 1.0 1.0
****
}
energy('scf')
refE = 5.65071627649024
compare_values(refE, variable("SCF TOTAL ENERGY"), 6, "HeH+ energy, F basis")
