molecule efp_spec {
efp h2o_l
  0.00 -0.70 0.0  # H2O
  1.48  0.35 0.0
 -1.48  0.35 0.0
 --
efp h2o_l
  4.93  3.49 0.0  # H2O
  6.41  4.54 0.0
  3.44  4.54 0.0
no_reorient
no_com
}

plugin_load("./efpfd.so")

energy('efp')

plugin("./efpfd.so")
