#! ADC(2)/sto-3g calculation of methyloxirane computing
#! rotational strength of 5 states

molecule methyloxirane {
    O	0.7971066654	0.9044360742	0.0836962049
    C	-0.1867183086	-0.0290724859	0.5536827176
    C	-1.4336843546	-0.1726679227	-0.2822214295
    C	1.1302222000	-0.4892393880	0.0894444115
    H	1.2197487995	-0.9517340291	-0.8946449424
    H	1.8923895176	-0.7869225283	0.8107731933
    H	-0.3474086480	0.0162374592	1.6337796505
    H	-2.0955293870	0.6891134744	-0.1384941617
    H	-1.9883466588	-1.0759327249	-0.0005360999
    H	-1.1805969868	-0.2349473270	-1.3455182514
    symmetry c1
}

set {
    reference rhf
    basis sto-3g
    guess core
    roots_per_irrep [5]
    gauge velocity
    qc_module adcc
}

# Computation for rotational strength
energy_adc, wfn = properties('adc(2)', properties=["rotational_strength", "oscillator_strength"],
                             return_wfn=True)

