#! OMP2 cc-pVDZ energy for the H2O molecule.

refnuc      =  9.18738642147759 #TEST
refscf      = -76.02674017978717 #TEST
refomp2     = -76.22932971998199 #TEST

sys.path.insert(0,'/home/ugur/Plugins')
import plugin_dfocc

memory 256 mb

molecule h2o {
0 1
o
h 1 0.958
h 1 0.958 2 104.4776 
}

set {
  basis cc-pvdz
  df_basis_scf cc-pvdz-jkfit
  df_basis_cc cc-pvdz-ri
  scf_type df
  guess sad
  freeze_core true
}
energy('df-omp2')

compare_values(refnuc, get_variable("NUCLEAR REPULSION ENERGY"), 6, "Nuclear Repulsion Energy (a.u.)");  #TEST
compare_values(refscf, get_variable("SCF TOTAL ENERGY"), 6, "DF-HF Energy (a.u.)");                        #TEST
compare_values(refomp2, get_variable("DF-OMP2 TOTAL ENERGY"), 6, "DF-OMP2 Total Energy (a.u.)");               #TEST

clean()

