molecule n2 {
  N
  N 1 R

  R = 1.11
}

plugin_load("./plugin_mp2.so")

set {
  basis cc-pVDZ
  reference rhf
  d_convergence 10
  freeze_core true
  e_convergence 10
}

eRHFDimer = scf()
plugin("plugin_mp2.so")
eMP2Dimer = get_variable("MP2 ENERGY")
clean()

molecule n {
   0 4
   N
}

set reference uhf
set basis cc-pvdz

eUHFMonomer = energy('scf')
plugin("plugin_mp2.so")
eUMP2Monomer = get_variable("MP2 ENERGY")
clean()

set reference rohf 

eROHFMonomer = energy('scf')
plugin("plugin_mp2.so")
eROMP2Monomer = get_variable("MP2 ENERGY")
clean()

print "E RHF   = %16.10f\n" % eRHFDimer
print "E RMP2  = %16.10f\n" % eMP2Dimer
print "E ROHF  = %16.10f\n" % eROHFMonomer
print "E ROMP2 = %16.10f\n" % eROMP2Monomer
print "E UHF   = %16.10f\n" % eUHFMonomer
print "E UMP2  = %16.10f\n" % eUMP2Monomer

print "ROHF Binding energy  = %7.2f kcal/mol\n" % (627.51*(eRHFDimer - 2.0*eROHFMonomer))
print "UHF Binding energy   = %7.2f kcal/mol\n" % (627.51*(eRHFDimer - 2.0*eUHFMonomer))
print "ROMP2 Binding energy = %7.2f kcal/mol\n" % (627.51*(eMP2Dimer - 2.0*eROMP2Monomer))
print "UMP2 Binding energy  = %7.2f kcal/mol\n" % (627.51*(eMP2Dimer - 2.0*eUMP2Monomer))

