#! single-point CCSD(T)/qz2p on water with ecc, aobasis, and frozen-core

print('        <<< Literal ZMAT to Cfour >>>')

cfour {
CCSD(T) energy calculation using frozen-core
O
H 1 R
H 1 R 2 A

R=0.958
A=104.5

*ACES2(CALC=CCSD(T),BASIS=qz2p
ABCDTYPE=AOBASIS
CC_PROGRAM=ECC
DROPMO=1
SCF_CONV=12
CC_CONV=12
MEMORY=20000000)
}

energy('cfour')

compare_values(-76.062748460117, variable('scf total energy'), 6, 'SCF')  #TEST
compare_values(-76.307900311342, variable('mp2 total energy'), 6, 'MP2')  #TEST
compare_values(-0.250330561135, variable('ccsd correlation energy'), 6, 'CCSD')  #TEST
compare_values(-76.313079021252, variable('ccsd total energy'), 6, 'CCSD')  #TEST
compare_values(-76.320175531445, variable('ccsd(t) total energy'), 6, 'CCSD(T)')  #TEST

clean()
clean_variables()
cfour {}

print('        <<< Translation of ZMAT to Psi4 format to Cfour >>>')

molecule {
O
H 1 R
H 1 R 2 A

R=0.958
A=104.5
}

set {
cfour_CALC_level=CCSD(T)
cfour_BASIS=qz2p
cfour_ABCDTYPE=AOBASIS
cfour_CC_PROGRAM=ECC
cfour_DROPMO=[1]
cfour_SCF_CONV=12
cfour_CC_CONV=12
}

energy('cfour')

compare_values(-76.062748460117, variable('scf total energy'), 6, 'SCF')  #TEST
compare_values(-76.307900311342, variable('mp2 total energy'), 6, 'MP2')  #TEST
compare_values(-0.250330561135, variable('ccsd correlation energy'), 6, 'CCSD')  #TEST
compare_values(-76.313079021252, variable('ccsd total energy'), 6, 'CCSD')  #TEST
compare_values(-76.320175531445, variable('ccsd(t) total energy'), 6, 'CCSD(T)')  #TEST

