#! 6-31G** H2O Test CISD Energy Point


molecule h2o {
    O
    H 1 1.00
    H 1 1.00 2 103.1
}

set globals {
  basis 6-31G**
  hd_ave hd_kave
  icore 2
}

thisenergy = energy('cisd')


clean()

