$comment
QM/MM computation of one water molecule in QM part and
one water + two ammonia molecules in EFP part.
$end

$molecule
0 1
O1   0 0 0.22434930339977222
H2   -1.423343188634522  5.5511151231257827e-17 -0.89739424378197596
H3   1.423343188634522, -5.5511151231257827e-17, -0.89739424378197596
$end

$rem
exchange hf
basis 6-31G(d)
jobtype sp
purecart 2222
$end

$efp_fragments
H2O -2.12417561  1.22597097 -0.95332054 -2.902133 1.734999 -1.953647
NH3  1.04358758  1.90477190  2.88279926 -1.105309 2.033306 -1.488582
NH3 -4.16795656 -0.98129149 -1.27785935  2.526442 1.658262 -2.742084
$end

$efp_params
fragment H2O
O 0.0000000000 0.0630300262 0.0000000000
H -0.7526519592 -0.5001659990 0.0000000000
H 0.7526519592 -0.5001659990 0.0000000000
mult 0.0000000000 0.0630300262 0.0000000000
8.0
mult -0.7526519592 -0.5001659990 0.0000000000
1.0
mult 0.7526519592 -0.5001659990 0.0000000000
1.0
mult 0.0000000000 0.0630300262 0.0000000000
cdamp 1.9953003930 
-8.4173680991
0.0000000000 -0.4127062480 0.0000000000
-3.7495006512 -4.1291495807 -4.6378678881 0.0000000000 0.0000000000 0.0000000000
0.0000000000 -1.0017712994 0.0000000000 -0.3012532793 0.0000000000 0.0000000000 0.0000000000 0.0000000000 -0.3304258976 0.0000000000
mult -0.7526519592 -0.5001659990 0.0000000000
cdamp 2.3431648880 
-0.3512187169
-0.0027268078 -0.0014022974 0.0000000000
-0.1692608571 -0.1690206886 -0.1691689065 0.0000353147 0.0000000000 0.0000000000
-0.0011623499 -0.0005685770 0.0000000000 -0.0001715688 0.0000000000 -0.0003501195 0.0000000000 -0.0003998870 -0.0002082332 0.0000000000
mult 0.7526519592 -0.5001659990 0.0000000000
cdamp 2.3448807010 
-0.3512187169
0.0027268078 -0.0014022974 0.0000000000
-0.1692608571 -0.1690206886 -0.1691689065 -0.0000353147 0.0000000000 0.0000000000
0.0011623499 -0.0005685770 0.0000000000 -0.0001715688 0.0000000000 0.0003501195 0.0000000000 0.0003998870 -0.0002082332 0.0000000000
mult -0.3763259796 -0.2185679864 0.0000000000
cdamp 3.2250577620 
-0.4400972335
0.2657818726 0.2358863756 0.0000000000
-0.1924885465 -0.1846098691 -0.1848031216 -0.0092326484 0.0000000000 0.0000000000
0.6405629452 0.5638506515 0.0000000000 0.2088443825 0.0000000000 0.2236371522 0.0000000000 0.2011226630 0.1831196699 0.0000000000
mult 0.3763259796 -0.2185679864 0.0000000000
cdamp 3.2165055970 
-0.4400972335
-0.2657818726 0.2358863756 0.0000000000
-0.1924885465 -0.1846098691 -0.1848031216 0.0092326484 0.0000000000 0.0000000000
-0.6405629452 0.5638506515 0.0000000000 0.2088443825 0.0000000000 -0.2236371522 0.0000000000 -0.2011226630 0.1831196699 0.0000000000
pol -0.3964262905 -0.2587872427 0.0000000011
2.6629294234 1.7670590537 0.7812922107 1.2832534969 -0.0000000037 -0.0000000033 1.1482095947 -0.0000000144 -0.0000000132
pol 0.3964262902 -0.2587872428 0.0000000021
2.6629294254 1.7670590567 0.7812922113 -1.2832535009 0.0000000076 -0.0000000067 -1.1482095971 0.0000000195 -0.0000000177
pol 0.0000000006 0.2059639203 -0.2623653463
1.4502428775 1.8574126776 2.7113709049 0.0000000046 -0.0000000029 -0.9972382204 0.0000000048 -0.0000000034 -1.0913249895
pol -0.0000000003 0.2059639241 0.2623653431
1.4502428978 1.8574127185 2.7113708742 -0.0000000023 -0.0000000009 0.9972382303 -0.0000000024 -0.0000000017 1.0913250020
disp -0.3964262905 -0.2587872427 0.0000000011
1.7370179214 1.7362633410 1.7318592752 1.7166131112 1.6750638554 1.5779842441 1.3831194658 1.0599413542 0.6397488823 0.2539854382 0.0498541608 0.0019032192 
disp 0.3964262902 -0.2587872428 0.0000000021
1.7370179227 1.7362633423 1.7318592765 1.7166131125 1.6750638566 1.5779842451 1.3831194667 1.0599413548 0.6397488826 0.2539854384 0.0498541608 0.0019032192 
disp 0.0000000006 0.2059639203 -0.2623653463
2.0063440537 2.0050769280 1.9977082860 1.9725427951 1.9064357400 1.7634043503 1.5082994239 1.1327201532 0.6754237484 0.2656524024 0.0527895323 0.0020694410 
disp -0.0000000003 0.2059639241 0.2623653431
2.0063440613 2.0050769357 1.9977082936 1.9725428026 1.9064357473 1.7634043569 1.5082994292 1.1327201566 0.6754237500 0.2656524029 0.0527895324 0.0020694410 
er_basis 6-311++G(3df,2p)
er_wavefunction
1 -5.05028060E-02  -8.96007592E-02  -1.64436933E-01  -1.25432643E-01   9.01096238E-10 
1  2.38840429E-01  -2.44752246E-01  -1.90392291E-01   1.34642888E-09   1.16480804E-01 
1 -1.11251074E-01  -1.20577903E-01   1.27933818E-09  -1.95806755E-02  -7.04029141E-03 
1 -1.78887586E-02   2.39862309E-10  -3.65025450E-03   2.26173348E-03  -3.53828179E-03 
1  0.00000000E+00  -3.31913265E-12  -4.95391577E-03  -8.02974463E-03   1.92649506E-02 
1 -4.28815901E-03   0.00000000E+00  -4.11201623E-11  -2.10687637E-02  -3.37543102E-02 
1 -6.58581935E-03  -1.26128911E-02   0.00000000E+00  -7.36703284E-11  -2.30393466E-02 
1 -6.29053161E-03  -3.98317166E-03  -1.45518639E-03  -3.48327085E-03   2.84620798E-11 
1  0.00000000E+00   1.78139485E-11   1.35760624E-03   1.12938441E-03   4.43128321E-12 
1  1.93015410E-01   2.99444779E-01   6.61631627E-02  -1.09251953E-03   1.46234603E-02 
1  1.01069903E-02   3.76705059E-11   4.45010740E-02   3.16758830E-02   6.51568662E-11 
1 -1.61847713E-02  -5.85492715E-02  -1.88699889E-02   6.06526658E-04  -4.65363673E-03 
1 -5.02423910E-03   3.76705059E-11   1.60223811E-03  -1.43807194E-02   6.51568662E-11 
2  5.05028059E-02   8.96007591E-02  -1.64436933E-01   1.25432643E-01  -1.85007287E-09 
2 -2.38840429E-01  -2.44752246E-01   1.90392291E-01  -2.76440123E-09  -1.16480803E-01 
2 -1.11251074E-01   1.20577903E-01  -2.62665491E-09   1.95806756E-02  -7.04029141E-03 
2  1.78887586E-02  -4.92469874E-10   3.65025449E-03   2.26173348E-03   3.53828178E-03 
2  0.00000000E+00   6.81462978E-12   4.95391577E-03   8.02974461E-03   1.92649506E-02 
2  4.28815897E-03   0.00000000E+00   8.44252738E-11   2.10687637E-02   3.37543101E-02 
2 -6.58581934E-03   1.26128911E-02   0.00000000E+00   1.51255182E-10   2.30393465E-02 
2 -6.29053161E-03   3.98317167E-03  -1.45518639E-03   3.48327086E-03  -5.84365126E-11 
2  0.00000000E+00  -3.65744540E-11   1.35760624E-03  -1.12938441E-03  -9.09802582E-12 
2  1.61847712E-02   5.85492712E-02   1.88699888E-02  -6.06526660E-04  -4.65363674E-03 
2  5.02423910E-03  -7.73426611E-11   1.60223805E-03   1.43807194E-02  -1.33775889E-10 
2 -1.93015410E-01  -2.99444780E-01  -6.61631627E-02   1.09251953E-03   1.46234603E-02 
2 -1.01069903E-02  -7.73426611E-11   4.45010740E-02  -3.16758830E-02  -1.33775889E-10 
3  6.62153318E-02   1.22074202E-01  -5.10009005E-10  -1.34345378E-01   2.04679123E-01 
3 -3.35198358E-01  -7.59110786E-10  -1.93873371E-01   3.05834018E-01  -4.87774285E-01 
3 -3.45050523E-10  -1.44841302E-01   2.90594729E-01  -6.88772451E-02  -2.18358002E-11 
3 -2.31502718E-02   5.44834226E-02   6.82923370E-03   7.01487445E-12   7.30106249E-03 
3  0.00000000E+00  -7.53922978E-04   6.05234724E-03   1.79601088E-02   5.97511648E-11 
3  2.91806393E-02   0.00000000E+00  -9.34022183E-03   1.92801504E-02   2.25167256E-02 
3 -2.04262334E-11   4.91504905E-02   0.00000000E+00  -1.67338155E-02   3.94697753E-02 
3 -1.95103844E-11  -1.08470720E-03  -4.51333012E-12  -4.04086307E-03   6.46500705E-03 
3  0.00000000E+00   4.04634179E-03   4.21068061E-12   1.83510168E-04   1.00654195E-03 
3  1.21565635E-02   8.11644374E-02   3.66828070E-02   1.22433872E-03   7.63402733E-04 
3 -4.93039362E-03   8.55665110E-03   1.94960866E-02   5.04822337E-03   1.48000288E-02 
3  1.21565629E-02   8.11644363E-02   3.66828068E-02   1.22433873E-03  -7.63402703E-04 
3 -4.93039367E-03   8.55665110E-03  -1.94960865E-02   5.04822323E-03   1.48000288E-02 
4  6.62153319E-02   1.22074202E-01   2.52388278E-10  -1.34345381E-01  -2.04679121E-01 
4 -3.35198358E-01   3.75661335E-10  -1.93873376E-01  -3.05834015E-01  -4.87774289E-01 
4  1.70755234E-10  -1.44841305E-01  -2.90594726E-01  -6.88772461E-02   1.08058876E-11 
4 -2.31502723E-02  -5.44834220E-02   6.82923373E-03  -3.47145259E-12   7.30106253E-03 
4  0.00000000E+00   7.53922970E-04   6.05234724E-03   1.79601088E-02  -2.95690731E-11 
4  2.91806396E-02   0.00000000E+00   9.34022173E-03   1.92801504E-02   2.25167254E-02 
4  1.01083350E-11   4.91504909E-02   0.00000000E+00   1.67338153E-02   3.94697755E-02 
4  9.65510855E-12  -1.08470726E-03   2.23351275E-12  -4.04086316E-03  -6.46500698E-03 
4  0.00000000E+00  -4.04634175E-03  -2.08374051E-12   1.83510185E-04  -1.00654193E-03 
4  1.21565643E-02   8.11644391E-02   3.66828076E-02   1.22433874E-03   7.63402849E-04 
4 -4.93039368E-03  -8.55665101E-03   1.94960870E-02   5.04822344E-03  -1.48000286E-02 
4  1.21565647E-02   8.11644397E-02   3.66828077E-02   1.22433873E-03  -7.63402864E-04 
4 -4.93039365E-03  -8.55665101E-03  -1.94960871E-02   5.04822351E-03  -1.48000286E-02 
er_fock_matrix
-0.9202084588 0.1883945642 -0.9202084584 0.1819831225 -0.1819831230
-0.6746177047 0.1819831210 -0.1819831205 -0.1633796667 -0.6746177035

er_lmos
-0.3964262905 -0.2587872427 0.0000000011
0.3964262902 -0.2587872428 0.0000000021
0.0000000006 0.2059639203 -0.2623653463
-0.0000000003 0.2059639241 0.2623653431
labels
A01O1 O 0.0000000000 0.0630300262 0.0000000000
A02H2 H -0.7526519592 -0.5001659990 0.0000000000
A03H3 H 0.7526519592 -0.5001659990 0.0000000000
fragment NH3
N 0.0000000000 0.0000000000 -0.0631774656
H -0.4667913138 -0.8085061803 0.2926031914
H -0.4667913074 0.8085061840 0.2926031914
H 0.9335825215 0.0000000000 0.2926032294
mult 0.0000000000 0.0000000000 -0.0631774656
7.0
mult -0.4667913138 -0.8085061803 0.2926031914
1.0
mult -0.4667913074 0.8085061840 0.2926031914
1.0
mult 0.9335825215 0.0000000000 0.2926032294
1.0
mult 0.0000000000 0.0000000000 -0.0631774656
cdamp 1.6384533840 
-6.6449324364
-0.0000000307 0.0000000005 0.8238262734
-3.5655228692 -3.5655228921 -4.6990856666 0.0000000007 0.0000000259 0.0000000009
-0.0441347524 0.0000000009 2.5095104451 0.0000000008 0.9039995065 0.0441346142 0.9039995000 -0.0000000311 0.0000000009 0.0000000002
mult -0.4667913138 -0.8085061803 0.2926031914
cdamp 2.3610462260 
-0.6086717606
-0.0354570447 -0.0614133945 0.0085447729
-0.3615717478 -0.3623324771 -0.3644565695 -0.0006588110 -0.0032104756 -0.0055607072
-0.0586056886 -0.1005168638 -0.0088276318 -0.0335056212 -0.0040551505 -0.0187722391 -0.0055830635 -0.0194887561 -0.0337555112 -0.0013232116
mult -0.4667913074 0.8085061840 0.2926031914
cdamp 2.3610380490 
-0.6086717614
-0.0354570442 0.0614133949 0.0085447730
-0.3615717485 -0.3623324778 -0.3644565702 0.0006588110 -0.0032104756 0.0055607072
-0.0586056877 0.1005168644 -0.0088276317 0.0335056214 -0.0040551505 -0.0187722388 -0.0055830635 -0.0194887558 0.0337555114 0.0013232116
mult 0.9335825215 0.0000000000 0.2926032294
cdamp 2.1889210790 
-0.6086717517
0.0709140813 0.0000000001 0.0085447745
-0.3627128297 -0.3611913697 -0.3644565553 0.0000000000 0.0064209516 0.0000000000
0.1154946370 0.0000000001 -0.0088276307 0.0000000000 -0.0063470197 0.0392612025 -0.0032911935 0.0389775074 0.0000000000 0.0000000000
mult -0.2333956569 -0.4042530902 0.1147128629
cdamp 10.0000000000 
-0.5096840942
0.1491195192 0.2582825851 -0.1701222687
-0.2621192678 -0.2327947160 -0.3137355944 0.0253958115 -0.0095309739 -0.0165081327
0.4494657036 0.7938380938 -0.5248487871 0.2646126991 -0.1747825688 0.1616311276 -0.1805281162 0.1494813753 0.2589093442 -0.0049757905
mult -0.2333956537 0.4042530920 0.1147128629
cdamp 10.0000000000 
-0.5096840935
0.1491195189 -0.2582825864 -0.1701222683
-0.2621192673 -0.2327947148 -0.3137355936 -0.0253958114 -0.0095309739 0.0165081329
0.4494657037 -0.7938380979 -0.5248487838 -0.2646127003 -0.1747825676 0.1616311277 -0.1805281151 0.1494813753 -0.2589093455 0.0049757904
mult 0.4667912607 0.0000000000 0.1147128819
cdamp 10.0000000000 
-0.5096841021
-0.2982390205 0.0000000012 -0.1701222947
-0.2181324437 -0.2767815519 -0.3137355960 0.0000000000 0.0190619546 -0.0000000001
-0.9255021073 0.0000000043 -0.5248488855 0.0000000015 -0.1834009247 -0.2966914772 -0.1719098276 -0.2989627322 0.0000000014 0.0000000000
pol -0.2778918474 -0.4813227572 0.1726103417
2.1998617706 3.6186399671 1.6907027672 1.2286117581 -0.5999455800 -1.0390957328 1.2286810814 -0.5197672535 -0.9002568524
pol 0.5557836403 -0.0000000006 0.1726103694
4.3279192391 1.4905404427 1.6907028567 0.0000023009 1.1999151563 0.0000399911 0.0000997249 1.0395289942 -0.0000031988
pol -0.2778918432 0.4813227597 0.1726103400
2.1998587983 3.6185729021 1.6907027645 -1.2286021977 -0.5999429308 1.0390557848 -1.2285980104 -0.5197617151 0.9002600542
pol 0.0000000104 -0.0000000004 -0.3996571210
2.9058878661 2.9056968381 7.2806674938 -0.0000069845 -0.0000030096 0.0000000072 -0.0000095214 -0.0000001528 0.0000000113
disp -0.2778918474 -0.4813227572 0.1726103417
2.5029328180 2.5016291538 2.4940294931 2.4678330498 2.3971764240 2.2348973055 1.9159130414 1.4034423214 0.7837969428 0.2845853361 0.0521975589 0.0019210848 
disp 0.5557836403 -0.0000000006 0.1726103694
2.5029327368 2.5016290727 2.4940294126 2.4678329712 2.3971763503 2.2348972422 1.9159129955 1.4034422960 0.7837969336 0.2845853345 0.0521975588 0.0019210848 
disp -0.2778918432 0.4813227597 0.1726103400
2.5029328263 2.5016291622 2.4940295014 2.4678330581 2.3971764321 2.2348973129 1.9159130478 1.4034423261 0.7837969454 0.2845853370 0.0521975590 0.0019210848 
disp 0.0000000104 -0.0000000004 -0.3996571210
4.3642187574 4.3589892310 4.3287457378 4.2275290658 3.9753122615 3.4829921151 2.7280048599 1.8049135613 0.9174118095 0.3132941542 0.0568950396 0.0021203641 
er_basis 6-311++G(3df,2p)
er_wavefunction
1 -5.16168414E-02  -9.03966786E-02  -8.62686461E-02  -1.49421671E-01   6.73654870E-02 
1  2.32640095E-01  -1.30186262E-01  -2.25489209E-01   1.05149038E-01   1.58041223E-01 
1 -8.02681828E-02  -1.39028571E-01   8.08305120E-02   1.54846723E-02  -3.97290324E-03 
1 -6.88126985E-03   1.97781192E-02  -5.00384927E-03   2.30785458E-03  -2.69599511E-03 
1 -1.29371713E-03  -2.24078354E-03  -4.32747062E-03  -1.46271805E-02   1.24184443E-02 
1 -2.20873954E-03  -9.50762790E-03  -1.64676929E-02  -1.09368266E-02  -2.01100216E-02 
1  2.15258801E-04  -1.98947632E-02  -5.25569009E-03  -9.10312207E-03  -1.14082295E-02 
1 -1.29773656E-03  -2.04142421E-03  -2.97337020E-03  -4.56476227E-03   2.46945207E-03 
1  7.18388606E-04   3.18784017E-03   6.00681447E-04   1.04041030E-03  -9.11659992E-04 
1  1.92913270E-01   2.68419337E-01   7.51818153E-02   3.84816634E-04   6.90542221E-03 
1  1.19605403E-02  -4.57009292E-03   1.33154826E-02   2.30630900E-02  -8.22492813E-03 
1 -1.25262144E-02  -3.75683524E-02  -2.70695842E-02  -2.82363073E-03  -2.75999035E-03 
1 -4.07496680E-03   2.25477362E-03  -7.06884302E-03  -3.30744943E-03   6.70329016E-03 
1 -1.25262163E-02  -3.75683536E-02  -2.70695812E-02  -2.82363050E-03  -2.14902922E-03 
1 -4.42770513E-03   2.25477383E-03   6.70086638E-04  -7.77552154E-03   6.70329036E-03 
2  5.16168425E-02   9.03966807E-02  -1.72537282E-01   4.81512760E-10  -6.73654980E-02 
2 -2.32640101E-01  -2.60372508E-01   7.12314383E-10  -1.05149055E-01  -1.58041231E-01 
2 -1.60536356E-01   6.78464419E-10  -8.08305250E-02  -1.54846747E-02  -7.94580406E-03 
2  3.92141902E-11  -1.97781209E-02   1.54206808E-03   6.67366921E-12   6.15777691E-03 
2 -2.58743426E-03   4.93100538E-12   4.32747060E-03  -4.00048085E-03  -1.81175621E-11 
2  2.08364041E-02  -1.90152549E-02   2.29431658E-11   1.09368255E-02   1.97871362E-02 
2  1.76217307E-11   2.02176520E-02  -1.05113789E-02   4.61425144E-11   1.14082287E-02 
2 -6.60866348E-03   4.21003246E-12  -5.62478847E-04   3.01731213E-11  -3.54703508E-03 
2 -1.80274409E-11  -2.11025767E-03   1.20136246E-03   1.68764307E-12   9.11659977E-04 
2  1.25262170E-02   3.75683550E-02   2.70695824E-02   2.82363074E-03  -4.90901937E-03 
2  3.52738777E-04  -2.25477414E-03  -6.39875495E-03   4.46807366E-03  -6.70329063E-03 
2  1.25262170E-02   3.75683551E-02   2.70695827E-02   2.82363077E-03  -4.90901938E-03 
2 -3.52738725E-04  -2.25477414E-03  -6.39875503E-03  -4.46807363E-03  -6.70329065E-03 
2 -1.92913272E-01  -2.68419334E-01  -7.51818098E-02  -3.84816609E-04   1.38108431E-02 
2  2.23597342E-11   4.57009349E-03   2.66309616E-02   3.61810897E-12   8.22492900E-03 
3 -5.16168411E-02  -9.03966781E-02  -8.62686447E-02   1.49421673E-01   6.73654860E-02 
3  2.32640094E-01  -1.30186260E-01   2.25489212E-01   1.05149037E-01   1.58041222E-01 
3 -8.02681819E-02   1.39028572E-01   8.08305105E-02   1.54846721E-02  -3.97290324E-03 
3  6.88126995E-03   1.97781188E-02  -5.00384927E-03  -2.30785459E-03  -2.69599506E-03 
3 -1.29371711E-03   2.24078355E-03  -4.32747061E-03  -1.46271806E-02  -1.24184443E-02 
3 -2.20873932E-03  -9.50762773E-03   1.64676931E-02  -1.09368266E-02  -2.01100214E-02 
3 -2.15258809E-04  -1.98947630E-02  -5.25569005E-03   9.10312215E-03  -1.14082295E-02 
3 -1.29773657E-03   2.04142418E-03  -2.97337015E-03   4.56476235E-03   2.46945202E-03 
3 -7.18388592E-04   3.18784015E-03   6.00681424E-04  -1.04041031E-03  -9.11660001E-04 
3 -1.25262156E-02  -3.75683542E-02  -2.70695848E-02  -2.82363071E-03  -2.75999037E-03 
3  4.07496675E-03   2.25477362E-03  -7.06884309E-03   3.30744933E-03   6.70329019E-03 
3  1.92913271E-01   2.68419337E-01   7.51818157E-02   3.84816655E-04   6.90542211E-03 
3 -1.19605403E-02  -4.57009295E-03   1.33154825E-02  -2.30630901E-02  -8.22492821E-03 
3 -1.25262160E-02  -3.75683532E-02  -2.70695812E-02  -2.82363050E-03  -2.14902924E-03 
3  4.42770518E-03   2.25477378E-03   6.70086573E-04   7.77552164E-03   6.70329028E-03 
4 -6.58395641E-02  -1.17915197E-01   7.65222435E-09  -3.02027805E-10  -2.25392567E-01 
4  3.09874245E-01   1.11766732E-08  -4.51260586E-10  -3.27935060E-01   4.82772486E-01 
4  9.21922700E-09  -5.99072332E-11  -3.29997506E-01   4.92674001E-02   3.73483812E-09 
4 -5.96070775E-11  -9.03797431E-02  -4.90901023E-03   6.63315141E-12  -4.90901020E-03 
4  6.62159163E-11  -6.44037842E-12  -5.81235189E-03  -7.73328910E-03   3.21248982E-11 
4 -7.73328968E-03   1.01695287E-09  -3.51568995E-11  -3.09624753E-02  -2.43817200E-02 
4  3.93366148E-11  -2.43817219E-02   1.31143227E-09   1.17173353E-11  -5.82135142E-02 
4  2.45863895E-03  -1.63254212E-11  -3.29860992E-03   3.60166601E-11  -6.10849561E-03 
4 -1.47008396E-11  -6.10849541E-03  -3.82013956E-11   2.99030934E-12  -4.92927415E-03 
4 -6.28754927E-03  -5.53684768E-02  -1.38240969E-02  -3.54556692E-03  -4.94923502E-04 
4 -8.57232960E-04  -8.14357410E-03  -7.14544561E-03  -1.23762763E-02  -1.44751110E-02 
4 -6.28754965E-03  -5.53684775E-02  -1.38240971E-02  -3.54556679E-03  -4.94923515E-04 
4  8.57232985E-04  -8.14357408E-03  -7.14544566E-03   1.23762765E-02  -1.44751110E-02 
4 -6.28754820E-03  -5.53684767E-02  -1.38240972E-02  -3.54556837E-03   9.89847607E-04 
4 -1.27259490E-11  -8.14357427E-03   1.42908929E-02  -9.28680553E-11  -1.44751102E-02 
er_fock_matrix
-0.7788656494 0.1422818701 -0.7788656580 -0.1422818783 0.1422818701
-0.7788656479 -0.1333910398 0.1333910427 -0.1333910386 -0.5099993592

er_lmos
-0.2778918474 -0.4813227572 0.1726103417
0.5557836403 -0.0000000006 0.1726103694
-0.2778918432 0.4813227597 0.1726103400
0.0000000104 -0.0000000004 -0.3996571210
labels
A01N1 N 0.0000000000 0.0000000000 -0.0631774656
A02H2 H -0.4667913138 -0.8085061803 0.2926031914
A03H3 H -0.4667913074 0.8085061840 0.2926031914
A04H4 H 0.9335825215 0.0000000000 0.2926032294
$end

