store = {}
test_psivars = ['scf total energy', 'mp2 same-spin energy', 'mp2 opposite-spin energy', 'mp2 singles energy', 'mp2 correlation energy', 'mp2 total energy', 'current reference energy', 'current correlation energy', 'current energy']

print '    <<<  RHF  >>>'

cfour {
MP2 single-point energy calculation
O
H 1 R
H 1 R 2 A

R=0.958
A=104.5

*ACES2(CALC=MP2,BASIS=AUG-PVDZ
SCF_CONV=12
MEMORY=20000000)
}

energy('cfour')
print_variables()
clean()

for vari in test_psivars:
    store[vari] = get_variable(vari)
    set_variable(vari, 0.0)
    #print(store[vari], get_variable(vari))
    #print get_variable(vari)

molecule h2o {
O
H 1 R
H 1 R 2 A

R=0.958
A=104.5
}

set basis aug-cc-pvdz
set e_convergence 10
set mp2_type conv

energy('mp2')

print_variables()

for vari in test_psivars:
    compare_values(store[vari], get_variable(vari), 6, vari.upper())

