#! Test DF-CCSD(T) energy for H2O/aug-cc-pVDZ
molecule h2o {
0 1
#O
#H 1 1.0 
#H 1 1.0 2 104.5
           O          2.000000000000    -0.000000000000    -0.068516219310
           H          2.000000000000    -0.790689573744     0.543701060724
           H          2.000000000000     0.790689573744     0.543701060724
           O          0.000000000000    -0.000000000000    -0.068516219310
           H          0.000000000000    -0.790689573744     0.543701060724
           H          0.000000000000     0.790689573744     0.543701060724
symmetry c1
}

plugin_load('./plugin_df_ccsd.so')
memory 5000 mb
set {
  basis        aug-cc-pvtz
  df_basis_cc  aug-cc-pvtz-ri
  df_basis_scf aug-cc-pvtz-jkfit

  scf_type df
  freeze_core true
  r_convergence 1e-7
}

scf_energy = scf()
plugin('./plugin_df_ccsd.so')

refscf =  -76.03566968373900 # TEST
refccsd =  -0.230819852022   # TEST
refccsdt = -0.236360387427   # TEST


clean()
