#! Test DF-CCSD(T) energy for H2O/aug-cc-pVDZ

# PYTHONPATH must include directory above plugin directory.
#     Define either externally or here, then import plugin.
sys.path.insert(0, '/Users/deprince/psi4/tests')
import plugin_df_ccsd

molecule h2o {
0 1
O
H 1 1.0 
H 1 1.0 2 104.5
}

memory 500 mb
set {
  basis        aug-cc-pvdz
  df_basis_cc  aug-cc-pvdz-ri

  freeze_core true
  r_convergence 1e-7
}
energy('df-ccsd(t)')



clean()
