#! OMP3 cc-pVDZ gradient with ROKS-B3LYP initial guess for the NO radical

# Gradient matches ROHF reference (DFT influence erased by orbital optimization)
# Reference: omp3-grad2 test (ROHF)
ref = psi4.Matrix.from_list([                                 #TEST
        [ 0.000000000000,  0.000000000000, -0.020150373690],  #TEST
        [ 0.000000000000,  0.000000000000,  0.020150373690]   #TEST
      ])                                                      #TEST

molecule no {
0 2
n
o 1 1.158
}

set {
  basis cc-pvdz
  reference roks
  guess gwh
}

grad = gradient('omp3', dft_functional='b3lyp')

compare_matrices(ref, grad, 5, "Analytic gradients")  #TEST
