#! He-Ne dimer MP2 energies with ECP, Ne electrons correlated then frozen.


molecule dimer {
    Ne
    Xe 1 3.0
}

set {
    basis def2-svp
    print 2
}

# All electrons on Ne correlated
Eall = energy('mp2')

set freeze_core true
set guess read
# 1s electrons on Ne frozen, but Xe should not be affected
Efzc = energy('mp2')
