#! Test parsed and exotic calls to energy() like zapt4, mp2.5, and cisd are working

molecule He2 {
0 1
He
He 1 1.0
}

set {
    basis 6-31g
    g_convergence gau
    mp2_type conv  # no fitting bases for helium
    scf_type pk  # no fitting bases for helium
    #df_scf_guess cc-pvdz-ri
    df_scf_guess false
    mp_type conv
}

set scf {
    e_convergence 8
}

set occ do_scs on

banner('gold standard')
energy('sherrill_gold_standard')
compare_values(-5.66406119, variable('CBS TOTAL ENERGY'), 7, "[1]  Au std")  #TEST
clean()

#banner('scf')
#energy('SCF')
#compare_values(-5.551087929000, variable('SCF TOTAL ENERGY'), 7, "SCF sp")  #TEST
#clean()

banner('mp2')
energy('mp2')
compare_values(-5.573453229993, variable('MP2 TOTAL ENERGY'), 7, "[2]  MP2 sp")  #TEST
compare_values(-0.02232850726021, variable('MP2 OPPOSITE-SPIN CORRELATION ENERGY'), 7, "      MP2 route check")  #TEST
# this second check will fail if a request for a mp2 calc gets routed to detci, rather than the mp2 module
clean()

banner('mp3')
energy('mp3')
compare_values(-5.57903326861, variable('MP3 TOTAL ENERGY'), 7, '[3]  MP3 occ')  #TEST
compare_values(-0.025155295755, variable('MP2.5 CORRELATION ENERGY'), 6, '      MP3 route check')  #TEST
set reference uhf
set_variable('MP3 TOTAL ENERGY',0.0)
energy('mp3')
compare_values(-5.57903326861, variable('MP3 TOTAL ENERGY'), 7, '[4]  MP3 detci (energy and route check)')  #TEST
set reference rhf
clean()

banner('mp4')
energy('mp4')
compare_values(-5.58040727035, variable('MP4 TOTAL ENERGY'), 7, '[5]  MP4 fnocc')  #TEST
clean()

banner('mp5')
energy('mp5')
compare_values(-5.580735737, variable('MP5 TOTAL ENERGY'), 6, '[5b]  MP5')  #TEST
compare_values(-0.02964776, variable('MP5 correlation ENERGY'), 6, '[5b]  MP5')  #TEST
clean()

banner('mp11')
energy('mp11')
compare_values(-5.580830858501, variable('MP11 TOTAL ENERGY'), 7, "[6]  MP11 sp")  #TEST
clean()

banner('zapt4')
try:
    energy('zapt4')
except psi4.UpgradeHelper:
    pass
set reference rohf
energy('zapt4')
compare_values(-5.580407221960, variable('ZAPT4 TOTAL ENERGY'), 7, "[7]  ZAPT4 sp")  #TEST
set reference rhf
clean()

banner('fci')
energy('fci')
compare_values(-5.580830850570, variable('FCI TOTAL ENERGY'), 7, "[8]  FCI sp")  #TEST
clean()

banner('mp2.5')
energy('mp2.5')
compare_values(-5.576243225099, variable('MP2.5 TOTAL ENERGY'), 7, "[9]  MP2.5 sp")  #TEST
clean()

banner('cbs()')
set scf_type pk
energy('cbs', scf_type='scf', scf_basis='cc-pvdz')
compare_values(-5.55609846, variable('CBS TOTAL ENERGY'), 7, "[10] cbs()")  #TEST
clean()

set {
    basis sto-3g
    df_basis_scf cc-pVDZ-JKFIT
    scf_type df
    e_convergence 8
}

# Try something other than scf
banner('db()')
database('scf','S22',subset=[2,8],benchmark='S22A')
compare_values(0.604937374581, variable('S22 DATABASE MEAN ABSOLUTE DEVIATION'), 5, "[11] db()")  #TEST
clean()

set {
    basis 6-31g
    scf_type pk
}
banner('cisd')
energy('cisd',molecule=He2)
compare_values(-5.580709674676, variable('CISD TOTAL ENERGY'), 7, "[12] CISD sp")  #TEST
clean()

#banner('opt(cbs())')
#optimize('scf',opt_func=cbs,scf_basis='sto-3g',scf_scheme=highest_1)
#compare_values(-5.615567415914, variable('SCF TOTAL ENERGY'), 6, 'opt(cbs())')  #TEST
#clean()

#banner('opt(arbitraryorder())')
#optimize('mp3')
#compare_values(-5.738452948227, variable('MP3 TOTAL ENERGY'), 5, '[13] opt(mp3())')  #TEST
#compare_values(-5.738452948227, variable('CURRENT ENERGY'), 5, '[13b] opt(mp3())')  #TEST

#molecule h2o {
#     O
#     H 1 1.0
#     H 1 1.0 2 104.5
#}

#set basis sto-3g

#energy('b3lyp-d')
#compare_values(-75.319769478, variable('CURRENT ENERGY'), 7, 'B3LYP-D2 sp')  #TEST

