#! Compute three IP and 2 EA's for the PH3 molecule

molecule mol {
  Si   0.0000000000   0.000000000    0.0000000000
  H    0.0000000000   0.000000000    1.4819259446
  H    1.3971731795   0.000000000   -0.4939753149
  H   -0.6985865898  -1.209987467   -0.4939753149
  H   -0.6985865898   1.209987467   -0.4939753149
}

set BASIS      CC-PVDZ
set EP2_NUM_EA 3

energy('EP2')



