#! Multilevel computation of water trimer energy (geometry from J. Chem. Theory Comput. 11, 2126-2136 (2015))

molecule h2o_trimer {
O      -2.76373224  -1.24377706  -0.15444566 
H      -1.12357791  -2.06227970  -0.05243799 
H      -3.80792362  -2.08705525   1.06090407 
--
O       2.46924614  -1.75437739  -0.17092884 
H       3.76368260  -2.21425403   1.00846104 
H       2.30598330   0.07098445  -0.03942473 
--
O       0.29127930   3.00875625   0.20308515 
H      -1.21253048   1.95820900   0.10303324 
H       0.10002049   4.24958115  -1.10222079 
units bohr
}


set cc_type df

# Compute 1-body contribution with ccsd(t) and 2-body contribution with mp2
levels = {1: 'mp2/sto-3g', 2: 'scf/sto-3g'}
e, wfn = energy('', molecule=h2o_trimer, bsse_type=['nocp', 'cp', 'vmfc'], return_total_data=True, return_wfn=True, levels=levels)
clean()

# Compute 1-body contribution with ccsd(t) and estimate all higher order contributions with scf
levels = {1: 'mp2/sto-3g', 'supersystem': 'scf/sto-3g'}
e, wfn = energy('', molecule=h2o_trimer, bsse_type='nocp', return_total_data=True, return_wfn=True, levels=levels)
clean()

# Compute electrostatically embedded  many-body expansion energy.with Mulliken charges
e, wfn = energy('scf/sto-3g', molecule=h2o_trimer, bsse_type='vmfc', return_total_data=True, return_wfn=True,
                max_nbody=2, charge_method='scf/sto-3g', charge_type='MULLIKEN_CHARGES')
clean()

# Compute electrostatically embedded  many-body expansion energy.with TIP3P charges
tip3p_charges = [-0.834, 0.417, 0.417]
embedding_charges = {i: [j for j in tip3p_charges] for i in range(1, 4)}
e, wfn = energy('scf/sto-3g', molecule=h2o_trimer, bsse_type='vmfc', return_total_data=True, return_wfn=True,
                max_nbody=2, embedding_charges=embedding_charges)
clean()
