#! CVS-ADC(1)/cc-pvdz calculation of 10 water singlet excited states
#! tackling the Oxygen 1s edge core exitations

molecule h2o {
    O 0 0 0
    H 0 0 1.795239827225189
    H 1.693194615993441 0 -0.599043184453037
    symmetry c1
    units au
}

set {
    reference rhf
    basis cc-pvdz
    guess core
    num_core_orbitals 1
    roots_per_irrep [10]
}

# Run normal calculation of excitation energies (no properties)
energy_adc, wfn = energy('cvs-adc(1)', return_wfn=True)

# Alternative: Run computation of properties as well
properties('cvs-adc(1)', properties=["oscillator_strength", "dipole"])


ref_gs = -76.02634896855804                                                                    #TEST
ref_energies = [20.263990958722363, 20.28211779909201, 20.787493225984626,                     #TEST
                20.82586428573698, 20.847369752757725, 20.979927773485176,                     #TEST
                21.119037457798175, 21.443100714046246, 21.47550354011884,                     #TEST
                21.719351885243988]                                                            #TEST
ref_oscillator = [0.031745607226392594, 0.07067401789077107, 0.06258391743191072,              #TEST
                  0.016782955227920737, 0.11514847783331773, 0.025878570041891667,             #TEST
                  0.046067265580675934, 7.343311132539717e-05, 4.603792497085604e-09,          #TEST
                  3.774045221207538e-05]                                                       #TEST
                                                                                               #TEST
compare_values(ref_gs, energy_adc, 6, "CVS-ADC(1) GS energy")                                  #TEST
compare_arrays(np.array([ref_energies]).T, wfn.variable("CVS-ADC(1) excitation energies").np,  #TEST
               1e-5, "CVS-ADC(1) excitation energies")                                         #TEST
