
# PYTHONPATH must include directory above plugin directory.
#     Define either externally or here, then import plugin.
sys.path.insert(0, './..')
import @plugin@

molecule {
O
H 1 R
H 1 R 2 A

R = .9
A = 104.5
}

set {
  scf_type df
  basis cc-pvdz
  df_basis_mp2 cc-pvdz-ri
  freeze_core true
}

set @plugin@ {
  print 1
}

energy('@plugin@')

@plugin@.exampleFN()
