#! Basis set spherical/Cartesian with basis and puream


molecule h2o {
O
H 1 R
H 1 R 2 A

R=0.958
A=104.5
}

set basis cc-pvdz

energy('c4-mp2')
clean()
clean_variables()

set basis 6-31g*

energy('c4-mp2')
clean()
clean_variables()

set basis cc-pvdz
set puream false

energy('c4-mp2')
clean()
clean_variables()

set basis 6-31g*
set puream true

energy('c4-mp2')
clean()
clean_variables()

