#! RHF-CCSD(T) cc-pVQZ frozen-core energy of the BH molecule, with Cartesian input.
#! This version tests the FROZEN_DOCC option explicitly

refnuc   =   2.645886245000000 #TEST
refscf   = -25.103546873615137 #TEST
refccsd  =  -0.100265803802460 #TEST
ref_t    =  -0.002090933428780 #TEST
reftotal = -25.205903610846349 #TEST

molecule bh {
    b      0.0000        0.0000        0.0000
    h      0.0000        0.0000        1.0000
}

set {
   docc [3, 0, 0, 0]
   frozen_docc [1, 0, 0, 0]
   basis cc-pvqz
   convergence 10
   e_converge 10
   d_converge 10
}

energy('ccsd(t)')

compare_values(refnuc,   bh.nuclear_repulsion_energy(),           9, "Nuclear repulsion energy") #TEST
compare_values(refscf,   get_variable("SCF total energy"),        9, "SCF energy")               #TEST
compare_values(refccsd,  get_variable("CCSD correlation energy"), 9, "CCSD contribution")        #TEST
compare_values(ref_t,    get_variable("(T) correction energy"),   9, "(T) contribution")         #TEST
compare_values(reftotal, get_variable("Current energy"),          9, "Total energy")             #TEST


clean()
