#! RHF STO-3G (Cartesian) and cc-pVDZ (spherical) water Hessian test, against Psi3 reference values.

memory 250 mb


molecule {
units bohr
nocom
noreorient
  O            0.134467872279     0.000255539126     0.000000000000
  H           -1.069804624577     1.430455315728    -0.000000000000
  H           -1.064298089419    -1.434510907104    -0.000000000000
}

set {
  puream false
  df_scf_guess false
  scf_type pk
  guess sad
  basis sto-3g
  d_convergence 10
}

psi4_hess = hessian('scf')


# Clean out scratch files and go again with cc-pVDZ
psi4.clean()


set {
  puream true
  basis cc-pvdz
}

psi4_hess = hessian('scf')

