molecule dimer { 
    He 0.0 0.0 0.0
    --
    He 0.0 0.0 4.0
    angstrom
    no_reorient
}

globals {
    BASIS aug-cc-pVDZ
    SCF_TYPE DF
    RI_BASIS_SCF aug-cc-pVDZ-RI
    RI_BASIS_SAPT aug-cc-pVDZ-RI
    DIIS True
    MAXITER 100
    E_CONVERGE 8
    GUESS SAD 
}

e_sapt0 = energy('sapt0')
