molecule dimer { 
     C  -1.888896  -0.179692   0.000000
     O  -1.493280   1.073689   0.000000
     O  -1.170435  -1.166590   0.000000
     H  -2.979488  -0.258829   0.000000
     H  -0.498833   1.107195   0.000000
     --
     C   1.888896   0.179692   0.000000
     O   1.493280  -1.073689   0.000000
     O   1.170435   1.166590   0.000000
     H   2.979488   0.258829   0.000000
     H   0.498833  -1.107195   0.000000
     angstrom
     no_reorient
}

memory 3500.0 MB 


globals {
    BASIS aug-cc-pVDZ
    SCF_TYPE DF
    RI_BASIS_SCF aug-cc-pVDZ-JKFIT
    RI_BASIS_SAPT aug-cc-pVDZ-RI
    DIIS True
    MAXITER 100
    E_CONVERGE 8
    GUESS SAD 
}

e_sapt0 = energy('sapt0')
