#! Single point gradient of 1-2B1 state of H2O+ with EOM-CCSD

oopkg = os.environ.get("_PSI4_USE_OOPKG", False)
psi4.set_options({"orbital_optimizer_package": "ooo" if oopkg else "internal"})

molecule h2o {
  1 2
  H -0.107055195862289   0.000000000000000  -1.832806614599657
  O -0.107055195862289   0.000000000000000   0.094714436481352
  H  1.806098405595803   0.000000000000000   0.329620161376194
  units bohr
}

set {
  reference uhf
  basis DZ
  roots_per_irrep [0, 0, 1, 0]
}

if psi4.core.get_option("scf", "orbital_optimizer_package") != "INTERNAL":
    psi4.set_options({"e_convergence": 9, "d_convergence": 3e-8})

analytic_grad = gradient('eom-ccsd')
findif_grad = gradient('eom-ccsd', dertype=0)


set findif points 5

findif_grad = gradient('eom-ccsd', dertype=0)

