#! DF-OMP3 cc-pVDZ gradients for the H2O molecule.

ref_vals = [                                                             #TEST
             [ 0.000000000000,     0.00000000000000,     0.01038659662705],  #TEST
             [ 0.000000000000,     0.00116746506418,    -0.00519329831353],  #TEST
             [ 0.000000000000,    -0.00116746506418,    -0.00519329831353]   #TEST
           ]                                                             #TEST
ref = psi4.Matrix(3, 3)                                                #TEST
ref.set(ref_vals)

molecule h2o {
0 1
o
h 1 0.958
h 1 0.958 2 104.4776 
}

set {
  basis cc-pvdz
  df_basis_scf cc-pvdz-jkfit
  df_basis_cc cc-pvdz-ri
  scf_type df
  guess sad
  freeze_core true
  mp_type df
}

grad = gradient('omp3')

compare_matrices(ref, grad, 5, "Analytic gradients")  #TEST


