#! MP2 cc-pVDZ gradient for the NO radical

ref_vals = [                                                       #TEST
             [ 0.000000000000,  0.000000000000, -0.195167728548],  #TEST
             [ 0.000000000000,  0.000000000000,  0.195167728548]   #TEST
           ]                                                       #TEST
ref = PsiMod.Matrix(2, 3)                                          #TEST
ref.set(ref_vals)

memory 250 mb

molecule no {
0 2
n
o 1 1.158
}

set {
  basis cc-pvdz
  reference uhf
  guess gwh
}
gradient('conv-mp2')

grad = PsiMod.wavefunction().gradient()                           #TEST
compare_matrices(ref, grad, 6, "Analytic gradients")              #TEST

