#! Tests RHF CCSD(T)gradients

molecule water{
H        -0.000000000000     1.344767972762     0.924701422022
O         0.000000000000     0.000000000000    -0.116529192243
H        -0.000000000000    -1.344767972762     0.924701422022

units bohr
}

set {
   reference rhf
   basis cc-pVDZ 
   r_convergence 14
   e_convergence 14
   d_convergence 14
   qc_module ccenergy
}

if psi4.core.get_option("scf", "orbital_optimizer_package") == "INTERNAL":
    tol = 8
else:
    tol = 5e-8
    psi4.set_options({"e_convergence": 9, "d_convergence": 5e-9})

analytic, wfn = gradient('ccsd(t)', return_wfn=True)
             [ 0.0000000000, -0.0655653749, -0.0499834310],  # 
             [ 0.0000000000,  0.0000000000,  0.0999668620],  # CFOUR RESULTS
             [ 0.0000000000,  0.0655653749, -0.0499834310]   #
           ])

molecule N2{
N 0 0 1.05723396
N 0 0 -1.05723396
units bohr
}

set {
   reference rhf
   basis cc-pVDZ 
   e_convergence 14
   r_convergence 14
   d_convergence 14
}

if psi4.core.get_option("scf", "orbital_optimizer_package") == "INTERNAL":
    tol = 8
else:
    tol = 5e-8
    psi4.set_options({"e_convergence": 9, "d_convergence": 5e-8})

analytic, wfn = gradient('ccsd(t)', return_wfn=True)
	   ])
