
# PYTHONPATH must include directory above plugin directory.
#     Define either externally or here, then import plugin.
sys.path.insert(0, './..')
import myplugin1

molecule {
O
H 1 R
H 1 R 2 A

R = .9
A = 104.5
}

set {
  basis sto-3g
}

set myplugin1 {
  print 1
}

energy('myplugin1')

myplugin1.exampleFN()
compare_values(-74.9455096208439784, get_variable('CURRENT ENERGY'), 6, 'plug1')

