#! OMP2 cc-pVDZ energy for the NO molecule.


memory 256 mb

molecule {
0 2
N
O 1 1.158
}

set {
  basis cc-pvdz
  df_basis_scf cc-pvdz-jkfit
  df_basis_cc cc-pvdz-ri
  scf_type df
  guess sad
  reference uhf
  freeze_core true
}
energy('df-omp2')


