#! Cholesky decomposed REMP/cc-pVDZ energies for the CO2 molecule.

test_dict = { "0.00": -188.31355173488825,  #TEST
              "0.10": -188.31185799228328,  #TEST
              "0.20": -188.31067714878031,  #TEST
              "0.30": -188.30994506800923,  #TEST
              "1.00": -188.31472976172114 } #TEST

ESCF = -187.71397457500782

molecule co2 {
0 1
C     0.1705487    0.3293777    0.0000000 
O     1.2087051   -0.2081727    0.0000000 
O    -0.8675996    0.8669312    0.0000000
}



set {
  reference rhf
  basis def2-TZVPP
  freeze_core true
  cc_type cd
  mp2_type cd
}  

set{
  e_convergence 1.0E-9
  r_convergence 1.0E-8
}

#Avals=[0.00, 0.10, 0.20, 0.30, 1.00]


#for A in Avals:
#     psi4.print_out("running step %5.2f" % A)
#     set remp_A=$A
#     e_remp=energy('remp2')
#     compare_values(test_dict[remp_A], get_variable("REMP2 TOTAL ENERGY"), 6, "REMP2 Total Energy") #TEST



set remp_A=0.00
e_remp=energy('remp2')
compare_values(ESCF, variable("SCF TOTAL ENERGY"), 6, "CD-SCF Energy") #TEST
compare_values(test_dict["0.00"], variable("REMP2 TOTAL ENERGY"), 7, "CD-REMP(0.00) Total Energy") #TEST


set remp_A=0.10
e_remp=energy('remp2')
compare_values(test_dict["0.10"], variable("REMP2 TOTAL ENERGY"), 7, "CD-REMP(0.10) Total Energy") #TEST

set remp_A=0.20
e_remp=energy('remp2')
compare_values(test_dict["0.20"], variable("REMP2 TOTAL ENERGY"), 7, "CD-REMP(0.20) Total Energy") #TEST

set remp_A=0.30
e_remp=energy('remp2')
compare_values(test_dict["0.30"], variable("REMP2 TOTAL ENERGY"), 7, "CD-REMP(0.30) Total Energy") #TEST

set remp_A=1.00
e_remp=energy('remp2')
compare_values(test_dict["1.00"], variable("REMP2 TOTAL ENERGY"), 7, "CD-REMP(1.00) Total Energy") #TEST

