# RHF-CCSD-LR/cc-pVDZ static polarizability of HOF


molecule hof {
          O          -0.947809457408    -0.132934425181     0.000000000000
          H          -1.513924046286     1.610489987673     0.000000000000
          F           0.878279174340     0.026485523618     0.000000000000
unit bohr
noreorient
}

set {
    wfn ccsd
    dertype response
    basis cc-pVDZ
    mu_irreps = [0, 0, 1]
}

response('ccsd')

clean()

