#! SCF DZ finite difference frequencies by energies for C4NH4

molecule c4nh4 {
  units angstrom
  -1 1
    C         0.000000000000     0.000000000000     1.119905811674
    N         0.000000000000     0.000000000000     2.310087277449
    C         0.000000000000     0.000000000000    -0.231085072523
    C        -0.781617287494     0.000000000000    -1.483869398827
    C         0.781617287494     0.000000000000    -1.483869398827
    H        -1.274488047821    -0.899961499592    -1.835960153318
    H        -1.274488047821     0.899961499592    -1.835960153318
    H         1.274488047821     0.899961499592    -1.835960153318
    H         1.274488047821    -0.899961499592    -1.835960153318
}

list_freqs = [

anal_freqs = psi4.Vector.from_list(list_freqs)
a1_freqs = psi4.Vector.from_list([list_freqs[i] for i in [4, 7, 10, 13, 15, 16, 18]])
a2_freqs = psi4.Vector.from_list([list_freqs[i] for i in [6, 12, 19]])
b1_freqs = psi4.Vector.from_list([list_freqs[i] for i in [1, 3, 8, 11, 14, 17]])
b2_freqs = psi4.Vector.from_list([list_freqs[i] for i in [0, 2, 5, 9, 20]])


# Compute all frequencies by 3-pt formula.
set {
  basis dz
  d_convergence 11
  scf_type pk
}

scf_e, scf_wfn = frequencies('scf', dertype=1, return_wfn=True)


# Compute A2 frequencies by 5-pt formula.
set findif {
 points 5
 disp_size 0.01
}

scf_e, scf_wfn = frequencies('scf', dertype=1, irrep=2, return_wfn=True)


# Compute B2 frequencies by 5-pt formula.

scf_e, scf_wfn = frequencies('scf', dertype=1, irrep=4, return_wfn=True)


clean()
