#! SCF DZ finite difference frequencies by energies for C4NH4

molecule c4nh4 {
  units angstrom
  -1 1
    C         0.000000000000     0.000000000000     1.119905811674
    N         0.000000000000     0.000000000000     2.310087277449
    C         0.000000000000     0.000000000000    -0.231085072523
    C        -0.781617287494     0.000000000000    -1.483869398827
    C         0.781617287494     0.000000000000    -1.483869398827
    H        -1.274488047821    -0.899961499592    -1.835960153318
    H        -1.274488047821     0.899961499592    -1.835960153318
    H         1.274488047821     0.899961499592    -1.835960153318
    H         1.274488047821    -0.899961499592    -1.835960153318
}

list_freqs = [
-184.0613, #TEST
 236.5665, #TEST
 601.8179, #TEST
 663.5969, #TEST
 667.0854, #TEST
 895.5586, #TEST
1008.6894, #TEST
1008.9522, #TEST
1046.9718, #TEST
1160.1266, #TEST
1161.1594, #TEST
1215.7027, #TEST
1225.2493, #TEST
1600.6695, #TEST
1622.1779, #TEST
1673.4861, #TEST
2239.4185, #TEST
3171.5147, #TEST
3182.4027, #TEST
3224.7634, #TEST
3244.2997] #TEST

anal_freqs = psi4.Vector.from_list(list_freqs)
a1_freqs = psi4.Vector.from_list([list_freqs[i] for i in [4, 7, 10, 13, 15, 16, 18]])
a2_freqs = psi4.Vector.from_list([list_freqs[i] for i in [6, 12, 19]])
b1_freqs = psi4.Vector.from_list([list_freqs[i] for i in [1, 3, 8, 11, 14, 17]])
b2_freqs = psi4.Vector.from_list([list_freqs[i] for i in [0, 2, 5, 9, 20]])


# Compute all frequencies by 3-pt formula.
set {
  basis dz
  d_convergence 11
  scf_type pk
}

scf_e, scf_wfn = frequencies('scf', dertype=1, return_wfn=True)
fd_freqs = scf_wfn.frequencies() #TEST

compare_vectors(anal_freqs, fd_freqs, 1, "C4NH4 frequencies by gradients (3-pt.) to 0.1 cm^-1") #TEST
del fd_freqs #TEST

# Compute A2 frequencies by 5-pt formula.
set findif {
 points 5
 disp_size 0.01
}

scf_e, scf_wfn = frequencies('scf', dertype=1, irrep=2, return_wfn=True)
fd_freqs = scf_wfn.frequencies() #TEST

compare_vectors(a2_freqs, fd_freqs, 3, "C4NH4 frequencies (A2) by gradients (5-pt.) to 0.001 cm^-1") #TEST
del fd_freqs #TEST

# Compute B2 frequencies by 5-pt formula.

scf_e, scf_wfn = frequencies('scf', dertype=1, irrep=4, return_wfn=True)
fd_freqs = scf_wfn.frequencies() #TEST

compare_vectors(b2_freqs, fd_freqs, 3, "C4NH4 frequencies (B2) by gradients (5-pt.) to 0.001 cm^-1") #TEST
del fd_freqs #TEST

clean()
