#! He2+ FCI/cc-pVDZ Transition Dipole Moment

refnuc   =   0.705569665333  #TEST
refscf   =  -4.816603104817  #TEST
refci1   =  -4.883262086636  #TEST
refcorr1 =  refci1 - refscf  #TEST
refci2   =  -4.879491772279  #TEST
refcorr2 =  refci2 - refscf  #TEST
refDipHF =   0.00000000      #TEST

refDipCI1=   0.000000000000  #TEST
refDipCI2=   0.000000000000  #TEST
refTDM   =   7.180360421465  #TEST

molecule he2p {
1 2
He 
He 1 3.0
symmetry c2v
}

set {
wfn detci
reference rohf
fci true
basis cc-pVDZ 
docc [1,0,0,0]
socc [1,0,0,0]
dipmom true
num_roots 2
}

thisenergy = energy('detci')

compare_values(refnuc, he2p.nuclear_repulsion_energy(), 9, "Nuclear repulsion energy")       #TEST 
compare_values(refscf, get_variable("SCF TOTAL ENERGY"),     8, "SCF energy") #TEST
compare_values(refci1, thisenergy,                      7, "CI ROOT 1 ENERGY") #TEST
compare_values(refci2,   get_variable("CI ROOT 2 TOTAL ENERGY"),       7, "CI ROOT 2 ENERGY") #TEST
compare_values(refcorr1, get_variable("CI ROOT 1 CORRELATION ENERGY"), 7, "CI root 1 correlation energy")  #TEST
compare_values(refcorr2, get_variable("CI ROOT 2 CORRELATION ENERGY"), 7, "CI root 2 correlation energy")  #TEST
compare_values(refDipHF, get_variable("SCF DIPOLE Z"), 5, "SCF Z Component of dipole")      #TEST
compare_values(refDipCI1, get_variable("CI ROOT 1 DIPOLE Z"), 5, "CI ROOT 1 Z Component of dipole")        #TEST
compare_values(refDipCI2, get_variable("CI ROOT 2 DIPOLE Z"), 5, "CI ROOT 2 Z Component of dipole")        #TEST
compare_values(abs(refTDM), abs(get_variable("CI ROOT 1 -> ROOT 2 DIPOLE Z")), 5, "CI ROOT 1 -> ROOT 2 Z Component of dipole")        #TEST

clean()
