#! Ne-Xe dimer MP2 energies with ECP, with electrons correlated then frozen.

refnuc =   45.862024925                                                                  #TEST
refall = -457.47320868249                                                                #TEST
reffzc = -457.38127218548                                                                #TEST
reffHe = -457.47130951838                                                                #TEST
refEin =    0.00468169972                                                                #TEST

molecule dimer {
    0 1
    Ne 0.0 0.0 0.0
    --
    0 1
    Xe 0.0 0.0 3.0
}

set {
    basis def2-svp
    print 2
}

# All electrons on Ne correlated, all non-ECP electrons on Xe correlated
Eall = energy('mp2')
compare_values(refnuc, dimer.nuclear_repulsion_energy(), 8, "Nuclear repulsion energy")  #TEST
compare_values(refall, Eall, 8, "MP2 energy with all-electron Ne and ECP on Xe")         #TEST

set freeze_core true
set guess sad
# [He] electrons on Ne frozen, [Kr] electrons on Xe frozen
Efzc = energy('mp2')
compare_values(reffzc, Efzc, 8, "MP2 energy with frozen [He] and [Kr]")                  #TEST
Eint = energy('mp2',bsse_type=['cp'])
compare_values(refEin, Eint, 8, "MP2 CP interaction energy frozen [He] and [Kr]")        #TEST


set freeze_core false
set num_frozen_docc 1
set guess read
# [He] electrons on Ne frozen,  only ECP electrons on Xe frozen
EfHe = energy('mp2')
compare_values(reffHe, EfHe, 8, "MP2 energy with frozen [He] and ECP")                   #TEST

molecule ghne {
    0 1
    @Ne 0.0 0.0 0.0
    --
    0 1
    Xe 0.0 0.0 3.0
}

molecule ghxe {
    0 1
    Ne 0.0 0.0 0.0
    --
    0 1
    Gh(Xe) 0.0 0.0 3.0
}

set freeze_core true
set num_frozen_docc 0
set guess sad

Eghne = energy('mp2', molecule=ghne)
Eghxe = energy('mp2', molecule=ghxe)
compare_values(refEin, Efzc - Eghne - Eghxe, 8, "MP2 CP interaction energy frozen [He] and [Kr] by hand")  #TEST

molecule {
0 1
Kr 0 0 0
--
0 1
Kr 3 0 0 
no_reorient
no_com
}

set globals {
scf_type df
mp2_type df
e_convergence 1.e-10
d_convergence 1.e-10
}

ref_0 = 0.017489937540631217                                                      #TEST
ref_1 = 0.017534534033075033                                                      #TEST
ref_2 = 0.017495709601462295                                                      #TEST
ref_3 = 0.017490717913460685                                                      #TEST

set freeze_core 0
E, wfn = energy('mp2/3-21g', bsse_type="nocp", return_wfn="True")
compare_values(ref_0, E, 8, "Kr--Kr nocp MP2 interaction energy, freeze_core 0 ") #TEST

set freeze_core 1
E, wfn = energy('mp2/3-21g', bsse_type="nocp", return_wfn="True")
compare_values(ref_1, E, 8, "Kr--Kr nocp MP2 interaction energy, freeze_core 1 ") #TEST

set freeze_core -1
E, wfn = energy('mp2/3-21g', bsse_type="nocp", return_wfn="True")
compare_values(ref_1, E, 8, "Kr--Kr nocp MP2 interaction energy, freeze_core -1") #TEST

set freeze_core -2
E, wfn = energy('mp2/3-21g', bsse_type="nocp", return_wfn="True")
compare_values(ref_2, E, 8, "Kr--Kr nocp MP2 interaction energy, freeze_core -2") #TEST

set freeze_core -3
E, wfn = energy('mp2/3-21g', bsse_type="nocp", return_wfn="True")
compare_values(ref_3, E, 8, "Kr--Kr nocp MP2 interaction energy, freeze_core -3") #TEST


