#! OMP2.5 cc-pVDZ gradient for the NO radical

ref_vals = [                                                       #TEST
             [ 0.000000000000,  0.000000000000,  0.011614594883],  #TEST
             [ 0.000000000000,  0.000000000000, -0.011614594883]   #TEST
           ]                                                       #TEST
ref = psi4.Matrix(2, 3)                                          #TEST
ref.set(ref_vals)

molecule no {
0 2
n
o 1 1.158
}

set {
  basis cc-pvdz
  reference rohf
  guess gwh
}

grad = gradient('omp2.5')

compare_matrices(ref, grad, 5, "Analytic gradients")  #TEST

