#! Water with modified sto-3g to test linearly-dependent basis

refenergy = -74.9631013251250664

molecule water {
    symmetry c1
    0 1
    8 -0.066308 -0.083391 0.042846
    1 0.889752 -0.042018 0.021589
    1 -0.341116 0.73212 -0.376167
}

basis lindep_basis {
    spherical
    ****
    H 0
    S 3 1.00
          3.42525091 0.15432897
          0.62391373 0.53532814
          0.16885540 0.44463454
    ****
    O 0
    S 3 1.00
        130.7093200 0.15432897
         23.8088610 0.53532814
          6.4436083 0.44463454
    S 3 1.00
        130.7093201 0.15432897
         23.8088610 0.53532814
          6.4436083 0.44463454
    S 3 1.00
        130.7093202 0.15432897
         23.8088610 0.53532814
          6.4436083 0.44463454
    S 3 1.00
        130.7093203 0.15432897
         23.8088610 0.53532814
          6.4436083 0.44463454
    S 3 1.00
        130.7093204 0.15432897
         23.8088610 0.53532814
          6.4436083 0.44463454
    S 3 1.00
        130.7093205 0.15432897
         23.8088610 0.53532814
          6.4436083 0.44463454
    SP 3 1.00
          5.0331513 -0.09996723 0.15591627
          1.1695961 0.39951283 0.60768372
          0.3803890 0.70011547 0.39195739
    ****
}

set = {
    basis lindep_basis
    reference rhf
    scf_type direct
    df_scf_guess False
    brianqc_enable True
}

thisenergy = energy('scf')

