#! RHF-CCSD(T) cc-pVQZ frozen-core energy of the BH molecule, with Cartesian input.
#! This version tests the FROZEN_DOCC option explicitly


molecule bh {
    b      0.0000        0.0000        0.0000
    h      0.0000        0.0000        1.0000
}

set {
   docc [3, 0, 0, 0]
   frozen_docc [1, 0, 0, 0]
   basis cc-pvqz
   r_convergence 10
   e_convergence 10
   d_convergence 10
}

if psi4.core.get_option("scf", "orbital_optimizer_package") != "INTERNAL":
    psi4.set_options({"e_convergence": 9, "d_convergence": 1e-9})

energy('ccsd(t)')

