#! Pentacene with cc-pvdz, b3lyp with eml(50,110) grid

refenergy = -846.8494421

molecule pentacene {
    symmetry c1
    0 1
    6 -4.73925 3.75632 -1.16159
    6 -4.66667 3.17018 -2.46755
    6 -3.73319 2.21373 -2.74851
    6 -2.80529 1.76789 -1.74797
    6 -1.84743 0.795358 -2.00508
    6 -0.934698 0.361681 -1.01453
    6 0.035367 -0.619079 -1.26641
    6 0.937607 -1.04284 -0.280155
    6 1.91905 -2.03171 -0.527081
    6 2.80891 -2.44698 0.455272
    6 3.80739 -3.44934 0.211695
    6 4.66818 -3.84091 1.19675
    6 4.59408 -3.2564 2.5033
    6 3.66235 -2.29801 2.78271
    6 2.73487 -1.85182 1.7818
    6 1.777 -0.879301 2.03837
    6 0.864599 -0.44573 1.04756
    6 -0.105338 0.534881 1.29933
    6 -1.00782 0.958399 0.313214
    6 -1.98941 1.9469 0.56068
    6 -2.87898 2.36282 -0.421606
    6 -3.8771 3.36574 -0.177557
    1 -5.49152 4.51375 -0.959943
    1 -5.36153 3.49723 -3.23621
    1 -3.67647 1.76902 -3.73942
    1 -1.79118 0.351637 -2.9973
    1 0.090746 -1.064 -2.25803
    1 1.97534 -2.47581 -1.51903
    1 3.86261 -3.89079 -0.780613
    1 5.41842 -4.60078 0.996043
    1 5.28797 -3.58414 3.2725
    1 3.60495 -1.85254 3.77311
    1 1.72279 -0.433459 3.02964
    1 -0.159005 0.981198 2.29046
    1 -2.04472 2.39148 1.55259
    1 -3.92934 3.80983 0.813855
}

set = {
	basis cc-pvdz
	reference rhf
	dft_radial_scheme em
	dft_radial_points 50
	dft_spherical_scheme lebedev
	dft_spherical_points 110
	scf_type direct
	df_scf_guess False
	brianqc_enable True
}

set_num_threads(8)

thisenergy = energy('scf', dft_functional = 'b3lyp')

compare_values(refenergy, thisenergy, 3, "Reference energy")                            #TEST
