#! SCF/cc-pVDZ optimization example with frozen cartesian
memory 500 MB

molecule h2o {
0 1
O   1.000000   1.000000   1.000000
H   2.000000   1.000000   1.000000
H   1.000000   2.000000   1.000000
units angstrom
}

set {
    reference       rhf
    basis           cc-pVDZ
    e_convergence   11
    guess           sad
    scf_type        df
}

freeze_list = '''
    1 xyz'''

set optking {
  frozen_cartesian $freeze_list
}

opt_energy = optimize('scf')


# Coords are in bohr

