#! SCF/cc-pVDZ optimization example with frozen cartesian

molecule h2o {
0 1
O   1.000000   1.000000   1.000000
H   2.000000   1.000000   1.000000
H   1.000000   2.000000   1.000000
units angstrom
}

set {
    reference       rhf
    basis           cc-pVDZ
    e_convergence   11
    guess           sad
    scf_type        df
}

freeze_list = '''
    1 xyz'''

set optking {
  frozen_cartesian $freeze_list
}

opt_energy = optimize('scf')

compare_values(opt_energy, -76.0270327834836, 6, "SCF Optimized energy") #TEST

# Coords are in bohr
compare_values( h2o.x(0), 1.88972613289, 6, "X Frozen coordinate") #TEST
compare_values( h2o.y(0), 1.88972613289, 6, "Y Frozen coordinate") #TEST
compare_values( h2o.z(0), 1.88972613289, 6, "Z Frozen coordinate") #TEST

