molecule ch2 {
  0 3
  C
  H 1 1.1
  H 1 1.1 2 109.0
}

plugin_load("./backtrans.so")

set globals {
  reference uhf
  basis cc-pvdz
  delete_tei false
}
gradient('CCSD')
plugin("./backtrans")

clean()



