#! OMP3 cc-pVDZ energy with ROHF initial guess for the NO radical

refnuc      =   25.59060766929188  #TEST
refscf      = -129.25292774594956 #TEST
refomp3     = -129.66096094175265 #TEST

molecule no {
0 2
n
o 1 1.158
}

set {
  basis cc-pcvdz
  reference rohf
}
energy('omp3')

compare_values(refnuc, get_variable("NUCLEAR REPULSION ENERGY"), 6, "Nuclear Repulsion Energy (a.u.)"); #TEST
compare_values(refscf, get_variable("SCF TOTAL ENERGY"), 6, "SCF Energy (a.u.)");             #TEST
compare_values(refomp3, get_variable("OMP3 TOTAL ENERGY"), 6, "OMP3 Total Energy (a.u.)");                   #TEST
