#! OMP3 cc-pCVDZ energy with ROHF initial guess for the NO radical

# OMP3 energy from Jonathon's Psi4Numpy code, run 03/20, residual convergence 12. # TEST
refnuc      =   25.59060766929188  #TEST
refscf      = -129.25292774594956 #TEST
refomp3     = -129.66096119399774 #TEST

molecule no {
0 2
n
o 1 1.158
}

set {
  basis cc-pcvdz
  reference rohf
}
energy('omp3')

compare_values(refnuc, variable("NUCLEAR REPULSION ENERGY"), 6, "Nuclear Repulsion Energy (a.u.)"); #TEST
compare_values(refscf, variable("SCF TOTAL ENERGY"), 6, "SCF Energy (a.u.)");             #TEST
compare_values(refomp3, variable("OMP3 TOTAL ENERGY"), 6, "OMP3 Total Energy (a.u.)");                   #TEST
