#! EOM-CC2/cc-pVDZ on H2O2 with two excited states in each irrep

memory 250 mb

molecule h2o2 {
  0 1
  O
  O 1 1.39
  H 1 0.94 2 102.3
  H 2 0.94 1 102.3 3 -50.0
}

set {
  basis cc-pVDZ
  freeze_core true
  roots_per_irrep [2, 2]
}

property('eom-cc2', properties=['oscillator_strength'])
