molecule h2o {
O
H 1 0.9
H 1 0.9 2 105.0
}

plugin_load("mointegrals.so")

set basis cc-pvdz
set mointegrals print 1

scf()

plugin("mointegrals.so")
