#! Kr--Kr nocp energies with all-electron basis set to check frozen core

molecule {
0 1
Kr 0 0 0
--
0 1
Kr 3 0 0 
no_reorient
no_com
}

set globals {
scf_type df
mp2_type df
e_convergence 1.0e-10
d_convergence 1.0e-10
}

if psi4.core.get_option("scf", "orbital_optimizer_package") != "INTERNAL":
    psi4.set_options({"e_convergence": 9, "d_convergence": 6e-8})


set freeze_core 0
E, wfn = energy('mp2/def2-svp', bsse_type="nocp", return_wfn="True")

set freeze_core 1
E, wfn = energy('mp2/def2-svp', bsse_type="nocp", return_wfn="True")

set freeze_core -1
E, wfn = energy('mp2/def2-svp', bsse_type="nocp", return_wfn="True")

set freeze_core -2
E, wfn = energy('mp2/def2-svp', bsse_type="nocp", return_wfn="True")

set freeze_core -3
E, wfn = energy('mp2/def2-svp', bsse_type="nocp", return_wfn="True")

