#! RHF-CC2-LR/cc-pVDZ dynamic polarizabilities of HOF molecule.

molecule hof {
  0 1
  O
  H 1 0.97
  F 1 0.97 2 103.0
}

set {
  basis "cc-pVDZ"
  omega [0.05, 0.1, au]
}

wfn = properties('cc2',properties=['polarizability'], return_wfn=True)[1]

refnre = 46.7803584860185637                      # TEST
refscf = -174.4184331916397923                    # TEST
refcc2 = -174.776517192101466                     # TEST
refoverlap = 0.92825717826                        # TEST
ref911polar = 5.289283300369                      # TEST
ref911tensor = psi4.core.Matrix.from_list(        # TEST
   [[4.840179439145175, -1.335693262615588, 0],   # TEST
    [-1.335693262615588, 7.807744717693605, 0],   # TEST
    [0, 0, 3.219925744267478]])                   # TEST
ref456polar = 5.456588276958                      # TEST
ref456tensor = psi4.core.Matrix.from_list(        # TEST
   [[4.881284211069687, -1.414615639247135, 0],   # TEST
    [-1.414615639247135, 8.148801293672877, 0],   # TEST
    [0, 0, 3.339679326132262]])                   # TEST

compare_values(refnre, hof.nuclear_repulsion_energy(), 6, "Nuclear Repulsion Energy") # TEST
compare_values(refscf, wfn.variable("SCF TOTAL ENERGY"), 6, "SCF Energy") # TEST
compare_values(refcc2, wfn.variable("CC2 TOTAL ENERGY"), 6, "CC2 Energy") # TEST
compare_values(refoverlap, wfn.variable("LEFT-RIGHT CC2 EIGENVECTOR OVERLAP"), 5, "Left-Right CC2 Overlap") # TEST
compare_values(ref911tensor, wfn.variable("CC2 DIPOLE POLARIZABILITY TENSOR @ 911NM"), 5, "Dipole Polarizability Tensor (911nm)") # TEST
compare_values(ref911polar, variable("CC2 DIPOLE POLARIZABILITY @ 911NM"), 5, "Dipole Polarizability (911nm)") # TEST
compare_values(ref456tensor, wfn.variable("CC2 DIPOLE POLARIZABILITY TENSOR @ 456NM"), 5, "Dipole Polarizability Tensor (456nm)") # TEST
compare_values(ref456polar, variable("CC2 DIPOLE POLARIZABILITY @ 456NM"), 5, "Dipole Polarizability (456nm)") # TEST


