#! He Dimer VV10 functional test.

bench = {"DFT VV10 ENERGY": 0.0187972621212943, # TEST
         "DFT XC ENERGY": -2.1610011925928672,  # TEST
         "CURRENT ENERGY": -5.8199576848715910} # TEST

molecule ne {
  0 1
  He 0 0 -2.0
  He 0 0  2.0
}


set basis aug-cc-pVDZ

scf_e, scf_wfn = energy("VV10", return_wfn=True)

for k, v in bench.items():                        # TEST
    compare_values(v, psi4.get_variable(k), 6, k) # TEST
