#! DF-OMP3 cc-pVDZ energy for the H2O+ cation

refnuc      =  9.18738642147759 #TEST
refscf      = -75.63188585987055 #TEST
refomp3     = -75.79775248833599 #TEST

molecule h2o {
1 2
o
h 1 0.958
h 1 0.958 2 104.4776 
}

set {
  basis cc-pvdz
  df_basis_scf cc-pvdz-jkfit
  df_basis_cc cc-pvdz-ri
  scf_type df
  guess gwh
  freeze_core true
  reference uhf
  mp_type df
}
energy('omp3')

compare_values(refnuc, get_variable("NUCLEAR REPULSION ENERGY"), 6, "Nuclear Repulsion Energy");  #TEST
compare_values(refscf, get_variable("SCF TOTAL ENERGY"), 6, "DF-HF Energy");                        #TEST
compare_values(refomp3, get_variable("OMP3 TOTAL ENERGY"), 6, "DF-OMP3 Total Energy");               #TEST


