#! Example SAPT computation for ethene*ethine (i.e., ethylene*acetylene),
#! test case 16 from the S22 database

memory 250 mb

molecule dimer {
0 1
C   0.000000  -0.667578  -2.124659
C   0.000000   0.667578  -2.124659
H   0.923621  -1.232253  -2.126185
H  -0.923621  -1.232253  -2.126185
H  -0.923621   1.232253  -2.126185
H   0.923621   1.232253  -2.126185
--
0 1
C   0.000000   0.000000   2.900503
C   0.000000   0.000000   1.693240
H   0.000000   0.000000   0.627352
H   0.000000   0.000000   3.963929
units angstrom
}

set globals {
    BASIS jun-cc-pVDZ
    SCF_TYPE DF
    FREEZE_CORE True
}

energy('sapt0')




