#! UHF MP2 energy components. Checks that computed identically
#! between cfour and psi4

store = {}  #TEST
test_psivars = ['scf total energy', 'mp2 same-spin correlation energy', 'mp2 opposite-spin correlation energy', 'mp2 correlation energy', 'mp2 total energy', 'current reference energy', 'current correlation energy', 'current energy']  #TEST

print('    <<<  UHF  >>>')

cfour {
ROHF-MP2 energy calculation 
N
H 1 R
H 1 R 2 A

R=1.008
A=105.0

*ACES2(CALC=MP2,BASIS=AUG-PVDZ
MULT=2,REF=UHF
OCCUPATION=3-1-1-0/3-0-1-0
SCF_CONV=12
CC_CONV=12
MEMORY=20000000)
}

energy('cfour')

for vari in test_psivars:  #TEST
    store[vari] = variable(vari)  #TEST
    set_variable(vari, 0.0)  #TEST

molecule nh2 {
N
H 1 R
H 1 R 2 A

R=1.008
A=105.0
}

set basis aug-cc-pvdz
set e_convergence 10
set mp2_type conv

set basis aug-cc-pvdz
set reference uhf
set docc [3, 0, 0, 1]
set socc [0, 0, 1, 0]  #OCCUPATION=3-1-1-0/3-0-1-0



energy('mp2')
print_variables()

for vari in test_psivars:  #TEST
    compare_values(store[vari], variable(vari), 6, vari.upper())  #TEST

