#! MP2 cc-pVDZ gradient for the H2O molecule.

ref_vals = [                                                       #TEST
             [ 0.000000000000,  0.000000000000,  0.012074198966],  #TEST
             [ 0.000000000000,  0.001823878792, -0.006037099483],  #TEST
             [ 0.000000000000, -0.001823878792, -0.006037099483]   #TEST
           ]                                                       #TEST
ref = psi4.Matrix(3, 3)                                          #TEST
ref.set(ref_vals)

memory 250 mb

molecule h2o {
0 1
o
h 1 0.958
h 1 0.958 2 104.4776 
}

set {
  basis cc-pvdz
}
gradient('conv-mp2')

grad = psi4.wavefunction().gradient()                           #TEST
compare_matrices(ref, grad, 5, "Analytic gradients")              #TEST

