#! MBIS calculation on OH- (Expanded Arrays)
import numpy as np









  


molecule mol {
  -1 1
  O 0.0 0.0 0.0
  H 0.0 0.0 1.0
  symmetry c1
  no_reorient
  no_com
}

set {
  scf_type df
  d_convergence 8
  e_convergence 10
  mbis_radial_points 99
  mbis_spherical_points 350
}

e, wfn = energy('hf/cc-pvdz', return_wfn=True)
oeprop(wfn, 'MBIS_CHARGES', title='OH- SCF')

#NOTE: wfn.variable gives you the expanded, redundant atomic multipole arrays as numpy arrays; for flat, unique arrays, use wfn.array_variable
charges = wfn.variable("MBIS CHARGES")
dipoles = wfn.variable("MBIS DIPOLES")
quadrupoles = wfn.variable("MBIS QUADRUPOLES")
octupoles = wfn.variable("MBIS OCTUPOLES")

