#! RI-SCF cc-pVTZ energy of water, with Z-matrix input and cc-pVTZ-RI auxilliary basis.
#! This compuation runs in C1 symmetry, which is currently required for RI-SCF.


molecule h2o {
    symmetry c1
    O
    H 1 1.0
    H 1 1.0 2 104.5
}

globals {
  basis        cc-pVTZ
  scf_type     df
  ri_basis_scf cc-pVTZ-RI
  e_converge   10
}

thisenergy = energy('rhf')


clean()
