#! RI-SCF cc-pVTZ energy of water, with Z-matrix input and cc-pVTZ-RI auxilliary basis.

memory 250 mb


molecule h2o {
    O
    H 1 1.0
    H 1 1.0 2 104.5
}

set globals {
  basis        cc-pVTZ
  scf_type     df
  e_convergence   10
}

thisenergy = energy('scf')

