#! RI-SCF cc-pVTZ energy of water, with Z-matrix input and cc-pVTZ-RI auxilliary basis.
#! This compuation runs in C1 symmetry, which is currently required for RI-SCF.


molecule h2o {
    symmetry c1
    O
    H 1 1.0
    H 1 1.0 2 104.5
}

set globals {
  basis        cc-pVTZ
  scf_type     df
  e_convergence   10
}

thisenergy = energy('scf')


clean()
