#! DCFT calculation for the He dimer, with the K06 functional. This performs a
#! two-step update of the orbitals and cumulant, using DIIS extrapolation.
#! Four-virtual integrals are handled in the MO Basis.

memory 250 mb


molecule he2 {
    He
    He 1 3.2
}

set globals {
    r_convergence 11
    reference   uhf
    ao_basis    none
    algorithm   twostep
    basis       6-31G**
}

energy('dcft')

