#! functionals + DFTD3 ionization energies vs. other programs

molecule h2o {
0 1
O  -1.551007  -0.114520   0.000000
H  -1.934259   0.762503   0.000000
H  -0.599677   0.040712   0.000000
no_reorient
}

molecule h2o_plus {
1 2
O  -1.551007  -0.114520   0.000000
H  -1.934259   0.762503   0.000000
H  -0.599677   0.040712   0.000000
no_reorient
}

set {
   basis 6-31G
   dft_radial_points 200
   dft_spherical_points 590                
   guess sad
   e_convergence 9 
   d_convergence 9 
}

## The following functionals are not included 
## in Psi4 at the moment. 

# Current version of Psi4 does not match Q-Chem for these tests

# These tests fail to converge with the current version of Psi4
excluded_qchem_convergence_probs = {
}

# These tests are expected to fail with the current version of Psi4
# due to lack of UKS support 
excluded_qchem_not_uks_friendly = {
}

# The following data is from an older 
# version of Psi4 (~April 2017, SHA: 53e752c)  

# Current version of Psi4 does not match pre-LibXC Psi4
# (~April 2017, SHA: 53e752c)

