! VeryTightSCF GRID7 NOFINALGRID
! wB97X-D3
#! PBE0
#! PW6B95
! cc-pVDZ NORI
#! PBEh-3c
#! HF-3c NOSOSCF
*xyz 0 1
Ne 0 0 0
*
