
molecule h2o {
 O
 H 1 0.9
 H 1 0.9 2 105.0
}

set globals {
 basis cc-pvdz
 geom_maxiter 10
}

set optking {
  print 3
#  intrafrag_hess simple fischer schlegel
  intrafrag_hess lindh
}

optimize('scf')

