#! OMP2 cc-pVDZ energy for the NO molecule.


memory 256 mb

molecule {
0 2
N
O 1 1.158
}

set {
  basis cc-pvdz
  guess sad
  reference uhf
  freeze_core true
  scf_type cd
}
energy('cd-omp2')


