molecule h2o {
O
H 1 1.0
H 1 1.0 2 104.5
}

globals {
  basis sto-3g
  ri_basis_scf cc-pvdz-jkfit
}

set scf {
    scf_type df
}

edf = scf()

set scf {
    scf_type direct
    guess core
}

edirect = scf()

print "Density fitting error: %20.12lf Hartree\n" % (edirect - edf)
