molecule h2o {
O
H 1 1.0
H 1 1.0 2 104.5
}

PsiMod.set_global_option("BASIS", "STO-3G")
PsiMod.set_global_option("RI_BASIS_SCF", "cc-pVDZ-JKFIT")
PsiMod.print_global_options()

set scf {
    SCF_TYPE DF
}

PsiMod.print_options()

escf = scf()

