#! meta-GGA gradients of water and ssh molecules
#! reference gradients updated due to new BraggSlater radii

tpss_rks_grad = psi4.Matrix.from_list([ 
    [ 0.000000000000,     0.000000000000,    -0.005549613525],
    [ 0.000000000000,    -0.026866805298,     0.002770412774],
    [-0.000000000000,     0.026866805298,     0.002770412774],
    ])

tpss_uks_grad = psi4.Matrix.from_list([
    [ 0.016475344176,    -0.009109076710,     0.000000000000],
    [ 0.010941961637,    -0.008639187640,     0.000000000000],
    [-0.027413613197,     0.017741939650,     0.000000000000]
    ])

molecule h2o {
0 1
O
H 1 r
H 1 r 2 a

r=1.0
a=110.0
}

set {
    scf_type              df
    basis                 cc-pvdz
    dft_radial_points     99
    dft_spherical_points  302
    e_convergence         8
    d_convergence         8
}

analytic = gradient('TPSS', dertype=1)
# finitediff = gradient('TPSS', dertype=0)
# compare_matrices(finitediff, analytic, 5, "TPSS RKS Analytic vs FD Gradient")    #TEST
compare_matrices(tpss_rks_grad, analytic, 6, "TPSS RKS Analytic vs Store")    #TEST

molecule ssh {
0 2
S
H 1 r1
S 1 r2 2 a1

r1=1.4
r2=2.1
a1=110.0
}

set reference uks

analytic = gradient('TPSS', dertype=1)
#finitediff = gradient('TPSS', dertype=0)
#compare_matrices(finitediff, analytic, 5, "TPSS UKS Analytic vs FD Gradient")    #TEST
compare_matrices(tpss_uks_grad, analytic, 6, "TPSS UKS Analytic vs Store")    #TEST
