#! CCSD(T) cc-pVDZ geometry optimization for the H2O molecule using MRCC.

molecule h2o {
    o
    h 1 1.0
    h 1 1.0 2 104.5
}

set {
    basis cc-pvdz
    freeze_core true
    qc_module mrcc
}

try:
    # cc6 is unmanaged
    frequency('mrcc6')
except UpgradeHelper:
    pass

try:
    # ccsd(t) is managed
    optimize('mrccsd(t)')
except UpgradeHelper:
    pass

optimize("ccsd(t)")


