#! SCF STO-3G geometry optimzation, with Z-matrix input, by finite-differences

# Same test case as scf5
nucenergy = 8.9064890670                            #TEST
refenergy = -74.965901192                           #TEST

molecule h2o {
     O
     H 1 1.0
     H 1 1.0 2 104.5
}

set globals {
  diis false
  basis sto-3g
  e_converge 10
  d_converge 10
  points 3
}

thisenergy = optimize('scf', dertype = 0)

compare_values(nucenergy, h2o.nuclear_repulsion_energy(), 3, "Nuclear repulsion energy")    #TEST
compare_values(refenergy, thisenergy, 3, "Reference energy")                                #TEST

clean()

