#! Sample UHF/cc-pVDZ H2O computation on a doublet cation, using 
#! RHF/cc-pVDZ orbitals for the closed-shell neutral as a guess

molecule h2o {
  O 
  H 1 0.96
  H 1 0.96 2 104.5
}

set scf d_convergence 6

set basis cc-pVDZ
energy('scf')

compare_values(-76.02663273485877, variable('SCF TOTAL ENERGY'), 6, 'SCF energy')  #TEST
niter = int(variable('SCF ITERATIONS'))
compare_values(True, niter > 5 and niter < 15, f'Iterations {niter} for 0 1')  #TEST

clean()

h2o.set_multiplicity(2)
h2o.set_molecular_charge(1)
set scf reference uhf
set scf guess read
energy('scf')

compare_values(-75.63211086688469, variable('SCF TOTAL ENERGY'), 6, 'SCF energy')  #TEST
niter = int(variable('SCF ITERATIONS'))
compare_values(True, niter > 5 and niter < 15, f'Iterations {niter}, read-in guess, for +1 2')  #TEST
