#! H2O CISD/6-31G** Optimize Geometry by Energies

# These values below are from PSI3 tightly converged geom #TEST
refnuc   =   9.1957306425  #TEST
refscf   = -76.0231743780  #TEST
refci    = -76.2231144353442    #TEST
refcorr  = refci - refscf  #TEST

molecule h2o {
    O
    H 1 1.00
    H 1 1.00 2 103.1
}

set globals {
  wfn detci
  basis 6-31G**
  conv_max_force 1.0E-6
  conv_max_disp  1.0E-4
}

thisenergy = optimize('detci', dertype = 0)

compare_values(refnuc, h2o.nuclear_repulsion_energy(), 9, "Nuclear repulsion energy") #TEST 
compare_values(refscf, get_variable("SCF total energy"),     9, "SCF energy") #TEST
compare_values(refci, thisenergy,                      7, "CI energy") #TEST
compare_values(refcorr, get_variable("CI CORRELATION ENERGY"), 7, "CI correlation energy") #TEST

clean()

