#! integral conventional OO-REMP/cc-pVDZ engrad single points for the H2O molecule.

Enuc = 9.187386457589815 #TEST

test_energy_dict = { "0.00": -76.24311146927526,  #TEST
                     "0.10": -76.24132201209044,  #TEST
                     "0.20": -76.23973222513877,  #TEST
                     "0.30": -76.23831238618706,  #TEST
                     "1.00": -76.23167599033491}  #TEST

molecule h2o {
0 1
o
h 1 0.958
h 1 0.958 2 104.4776 
symmetry c1
}

set {
  basis cc-pvdz
  guess sad
  scf_type out_of_core
  freeze_core false
  wfn_type oremp
  cc_type conv
  e_convergence 1.0E-9
  r_convergence 1.0E-8
  qc_module occ
  orb_opt true
  max_mograd_convergence 1.0E-7
  rms_mograd_convergence 1.0E-8
  TPDM_ABCD_TYPE direct

}

Avals=[0.00, 0.10, 0.20, 0.30, 1.00]


#for A in Avals:
#     psi4.print_out("running step %5.2f" % A)
#     set remp_A=$A
#     e_remp=energy('remp2')
#     compare_values(test_dict[remp_A], get_variable("REMP2 TOTAL ENERGY"), 6, "REMP2 Total Energy") #TEST

compare_values(Enuc, h2o.nuclear_repulsion_energy(), 8, "Nuclear Repulsion Energy") #TEST

set remp_A=0.00
ref_grad=psi4.Matrix.from_list([
            [   0.000000000000,     0.000000000000,     0.013925124887 ],
            [   0.000000000000,     0.003259052766,    -0.006962562443 ],  
            [   0.000000000000,    -0.003259052766,    -0.006962562443 ]])

grad_oremp=gradient('oremp2')

compare_values(test_energy_dict["0.00"], variable("OREMP2 TOTAL ENERGY"), 8, "OREMP(0.00) Total Energy") #TEST
compare_matrices(ref_grad, grad_oremp, 5, "OREMP(0.00) Analytic gradients")  #TEST


set remp_A=0.10
ref_grad=psi4.Matrix.from_list([
            [   0.000000000000,     0.000000000000,     0.013227949715 ],
            [   0.000000000000,     0.002794520072,    -0.006613974858 ],
            [   0.000000000000,    -0.002794520072,    -0.006613974858 ]])

grad_oremp=gradient('oremp2')

compare_values(test_energy_dict["0.10"], variable("OREMP2 TOTAL ENERGY"), 8, "OREMP(0.10) Total Energy") #TEST
compare_matrices(ref_grad, grad_oremp, 5, "OREMP(0.10) Analytic gradients")  #TEST


set remp_A=0.20
ref_grad=psi4.Matrix.from_list([
            [   0.000000000000,    -0.000000000000,     0.012758472333 ],
            [   0.000000000000,     0.002464362577,    -0.006379236166 ],
            [   0.000000000000,    -0.002464362577,    -0.006379236166 ]])

grad_oremp=gradient('oremp2')
compare_values(test_energy_dict["0.20"], variable("OREMP2 TOTAL ENERGY"), 8, "OREMP(0.20) Total Energy") #TEST
compare_matrices(ref_grad, grad_oremp, 5, "OREMP(0.20) Analytic gradients")  #TEST

set remp_A=0.30
ref_grad=psi4.Matrix.from_list([
            [   0.000000000000,     0.000000000000,     0.012468994198 ],
            [   0.000000000000,     0.002240361639,    -0.006234497099 ],
            [   0.000000000000,    -0.002240361639,    -0.006234497099 ]])

grad_oremp=gradient('oremp2')
compare_values(test_energy_dict["0.30"], variable("OREMP2 TOTAL ENERGY"), 8, "OREMP(0.30) Total Energy") #TEST
compare_matrices(ref_grad, grad_oremp, 5, "OREMP(0.30) Analytic gradients")  #TEST

set remp_A=1.00
ref_grad=psi4.Matrix.from_list([
            [   0.000000000000,     0.000000000000,     0.013509815917 ],
            [   0.000000000000,     0.002462867918,    -0.006754907958 ],
            [   0.000000000000,    -0.002462867918,    -0.006754907958 ]])


grad_oremp=gradient('oremp2')
compare_values(test_energy_dict["1.00"], variable("OREMP2 TOTAL ENERGY"), 8, "OREMP(1.00) Total Energy") #TEST
compare_matrices(ref_grad, grad_oremp, 5, "OREMP(1.00) Analytic gradients")  #TEST
