#! RHF CCSD(T) cc-pVDZ frozen-core energy of C4NH4 Anion

molecule C4NH4 {
  -1 1
  C         0.00000000     0.00000000     2.13868804
  N         0.00000000     0.00000000     4.42197911
  C         0.00000000     0.00000000    -0.46134192
  C        -1.47758582     0.00000000    -2.82593059
  C         1.47758582     0.00000000    -2.82593059
  H        -2.41269553    -1.74021190    -3.52915989
  H        -2.41269553     1.74021190    -3.52915989
  H         2.41269553     1.74021190    -3.52915989
  H         2.41269553    -1.74021190    -3.52915989
  units bohr
}

set {
  docc        [10, 1, 4, 3]
  basis       cc-pVDZ
  freeze_core true
  r_convergence 10
  e_convergence 10
  d_convergence 10
}

energy('ccsd(t)')

refnuc   =  135.092128488419604 #TEST
refscf   = -208.153697555165110 #TEST
refccsd  =   -0.731388084971396 #TEST
ref_t    =   -0.030675386522182 #TEST
reftotal = -208.915761026658572 #TEST

# A previous version of this test used aug-cc-pvtz, but was deemed to expensive
# for testing. Reference values for aug-cc-pvtz are:
#refnuc   =  135.0921284884196    #TEST
#refscf   = -208.2159793502       #TEST
#refccsd  =   -0.884280512675734  #TEST
#ref_t    =   -0.048772959402886  #TEST
#reftotal = -209.149032822278599  #TEST

compare_values(refnuc,   C4NH4.nuclear_repulsion_energy(),        9, "Nuclear repulsion energy")  #TEST
compare_values(refscf,   variable("SCF total energy"),              9, "SCF energy")                   #TEST
compare_values(refccsd,  variable("CCSD correlation energy"), 9, "CCSD contribution")            #TEST
compare_values(ref_t,    variable("(T) correction energy"),   9, "(T) contribution")             #TEST
compare_values(reftotal, variable("Current energy"),          9, "Total energy")                 #TEST
