#! test using libtrans for mp2 integral transformation
sys.path.insert(0, '/Users/deprince/psi4/tests')
import plugin_mp2sort
molecule h2o {
0 1
O
H 1 1.0 
H 1 1.0 2 104.5
symmetry c1
}
set {
  e_convergence 1e-10
  d_convergence 1e-10
  basis cc-pvdz
  freeze_core false
}
energy('mp2') #TEST
mp2_energy = get_variable("MP2 TOTAL ENERGY") #TEST
energy('plugin_mp2sort')
compare_values(mp2_energy, get_variable("MP2 TOTAL ENERGY"),     8, "MP2 total energy") #TEST

clean()
