#! SAPT(DFT) aug-cc-pVDZ computation for the water dimer interaction energy.

DHF = -1.42620815 # TEST

Eref_nh = {"SAPT ELST ENERGY":  -12.86731900, #TEST
           "SAPT EXCH ENERGY":   12.77393901, #TEST
           "SAPT IND ENERGY":    -3.53895378, #TEST 
           "SAPT DISP ENERGY":   -2.67884677, #TEST
           "CURRENT ENERGY":     -6.31117998} #TEST

Eref_h_disp = {"SAPT ELST ENERGY":  -12.86733667, #TEST
               "SAPT EXCH ENERGY":   12.77398997, #TEST
               "SAPT IND ENERGY":    -3.53895908, #TEST 
               "SAPT DISP ENERGY":   -3.17821838, #TEST
               "CURRENT ENERGY":     -6.81052415} #TEST

Eref_h_fixed = {"SAPT ELST ENERGY":  -12.86733667, #TEST
                "SAPT EXCH ENERGY":   12.77398997, #TEST
                "SAPT IND ENERGY":    -3.53895908, #TEST 
                "SAPT DISP ENERGY":   -3.16871081, #TEST
                "CURRENT ENERGY":     -6.80101658} #TEST

molecule dimer {
  O -2.930978458   -0.216411437    0.000000000
  H -3.655219777    1.440921844    0.000000000
  H -1.133225297    0.076934530    0.000000000
   --
  O  2.552311356    0.210645882    0.000000000
  H  3.175492012   -0.706268134   -1.433472544
  H  3.175492012   -0.706268134    1.433472544
  units bohr
}

set {
    basis         aug-cc-pvdz
    e_convergence 1e-8
    d_convergence 1e-8
    sapt_dft_grac_shift_a 0.136
    sapt_dft_grac_shift_b 0.136
    SAPT_DFT_FUNCTIONAL PBE0
    SAPT_DFT_MP2_DISP_ALG FISAPT
}

# No hybrid kernel & no exch-disp scaling & no delta HF
set SAPT_DFT_DO_DHF False
set SAPT_DFT_DO_HYBRID False
set SAPT_DFT_EXCH_DISP_SCALE_SCHEME none
energy('sapt(dft)', molecule=dimer)
for k, v in Eref_nh.items(): #TEST
    if k in ["SAPT IND ENERGY", "CURRENT ENERGY"]:
        ref = (v - DHF) / 1000.0
    else:
        ref = v / 1000.0
    compare_values(ref, psi4.variable(k), 6, "!hyb, xd=none, !dHF: " + k) #TEST

# No hybrid kernel & no exch-disp scaling 
set SAPT_DFT_DO_DHF True
set SAPT_DFT_DO_HYBRID False
set SAPT_DFT_EXCH_DISP_SCALE_SCHEME none
energy('sapt(dft)', molecule=dimer)
for k, v in Eref_nh.items(): #TEST
    compare_values(v / 1000.0, psi4.variable(k), 6, "!hyb, xd=none, dHF: " + k) #TEST

# Hybrid kernel & exch-disp scaling (DISP)
set SAPT_DFT_DO_HYBRID True
set SAPT_DFT_EXCH_DISP_SCALE_SCHEME disp
energy('sapt(dft)', molecule=dimer)
for k, v in Eref_h_disp.items(): #TEST
    compare_values(v / 1000.0, psi4.variable(k), 6, "hyb, xd=disp, dHF: " + k) #TEST

# Hybrid kernel & exch-disp scaling (FIXED)
set SAPT_DFT_DO_HYBRID True
set SAPT_DFT_EXCH_DISP_SCALE_SCHEME fixed 
energy('sapt(dft)', molecule=dimer)
for k, v in Eref_h_fixed.items(): #TEST
    compare_values(v / 1000.0, psi4.variable(k), 6, "hyb, xd=fixed, dHF: " + k) #TEST
