#! MBIS calculation on H2O




 [-4.70466222e+00,  3.55109157e-15, -2.69579127e-16, -4.49125694e+00,
 [-2.98291759e-01, -1.79082958e-15,  5.03774016e-16, -2.88023807e-01,
 [-2.98291759e-01,  1.44161522e-16,  1.82009240e-17, -2.88023807e-01,

 [-1.90477405e-14,  1.59689768e-14, -1.57031738e-01,  2.01689537e-15,
  -2.21853785e-15,  6.81706215e-16,  1.44997125e-13, -4.56516484e-01,
 [ 1.09183508e-15, -1.04989006e-02,  8.86795891e-04,  5.68508999e-15,
  -2.20560386e-15, -5.29485868e-16, -3.24182338e-02, -1.86102449e-03,
 [ 2.77280153e-16,  1.04989006e-02,  8.86795891e-04,  1.96061810e-17,
   3.67553844e-17,  7.58633642e-17,  3.24182338e-02, -1.86102449e-03,

# Reference Atomic Volumes From Horton
# O 26.33864405917908
# H 1.5096257589296491
# H 1.5094431403157609


vratios_ref = psi4.Matrix.from_list([
[1.339537], 
[0.206664],
[0.206664]])


# Reference Valence Widths From Horton
# O 0.40355537630901217
# H 0.35780574579137503
# H 0.3577956925992588


molecule mol {
  0 1
  O
  H 1 1.0
  H 1 1.0 2 104.5
  symmetry c1
  no_reorient
  no_com
}

set {
  scf_type df
  d_convergence 8
  e_convergence 10
  mbis_radial_points 99
  mbis_spherical_points 350
  max_radial_moment 4
}

e, wfn = energy('hf/cc-pvdz', return_wfn=True)
oeprop(wfn, 'MBIS_CHARGES', title='H20 SCF')

#NOTE: wfn.array_variable gives you flattened atomic multipole arrays; for expanded arrays, use wfn.variable
charges = wfn.array_variable('MBIS CHARGES')
dipoles = wfn.array_variable('MBIS DIPOLES')
quadrupoles = wfn.array_variable('MBIS QUADRUPOLES')
octupoles = wfn.array_variable('MBIS OCTUPOLES')
avols = wfn.array_variable('MBIS RADIAL MOMENTS <R^3>')
vwidths = wfn.array_variable('MBIS VALENCE WIDTHS')


oeprop(wfn, "MBIS_VOLUME_RATIOS", title='H20 SCF')

vratios = wfn.array_variable('MBIS VOLUME RATIOS')
