#! DF-BP86-D2 cc-pVDZ frozen core gradient of S22 HCN
#! update ref gradient due to new BraggSlater radii

ref = psi4.Matrix.from_list([                          #TEST
 [ 0.000471410061, -0.006768779304,  0.000000000000],  #TEST
 [ 0.000447921040, -0.006988124432,  0.000000000000],  #TEST
 [-0.000919134240,  0.013753785558,  0.000000000000]]) #TEST]

molecule {
  0 1
  N    -0.0034118    3.5353926    0.0000000
  C     0.0751963    2.3707040    0.0000000
  H     0.1476295    1.3052847    0.0000000
}


set {
    scf_type              df
    basis                 cc-pvdz
    freeze_core           true
    dft_radial_points     99
    dft_spherical_points  302
    e_convergence         8
    d_convergence         8
}

grad = gradient('bp86-d')
compare_matrices(ref, grad, 7, "Analytic dft gradients called by name")    #TEST
clean()


set {
    reference rks
    dft_radial_points 99
    dft_spherical_points 302
}

grad = gradient('scf', dft_functional="bp86-d")
compare_matrices(ref, grad, 7, "Analytic dft gradients called by options") #TEST
