

molecule ammonia {
0 1
N  -1.578718  -0.046611   0.000000
H  -2.158621   0.136396  -0.809565
H  -2.158621   0.136396   0.809565
H  -0.849471   0.658193   0.000000
--
0 1
N   1.578718   0.046611   0.000000
H   2.158621  -0.136396  -0.809565
H   0.849471  -0.658193   0.000000
H   2.158621  -0.136396   0.809565
}
set basis 6-311++G(3df_3pd)
set df_basis_mp2 aug-cc-pvtz-ri

molecule water {
0 1
O  -1.551007  -0.114520   0.000000
H  -1.934259   0.762503   0.000000
H  -0.599677   0.040712   0.000000
--
0 1
O   1.350625   0.111469   0.000000
H   1.680398  -0.373741  -0.758561
H   1.680398  -0.373741   0.758561
}
set basis 6-311++G(3df_3pd)
set df_basis_mp2 aug-cc-pvtz-ri

molecule ethene {
0 1
C  -0.471925  -0.471925  -1.859111
C   0.471925   0.471925  -1.859111
H  -0.872422  -0.872422  -0.936125
H   0.872422   0.872422  -0.936125
H  -0.870464  -0.870464  -2.783308
H   0.870464   0.870464  -2.783308
--
0 1
C  -0.471925   0.471925   1.859111
C   0.471925  -0.471925   1.859111
H  -0.872422   0.872422   0.936125
H   0.872422  -0.872422   0.936125
H  -0.870464   0.870464   2.783308
H   0.870464  -0.870464   2.783308
}
set basis 6-311++G(3df_3pd)
set df_basis_mp2 aug-cc-pvtz-ri


set reference rks
set scf_type direct
set freeze_core false

activate(ammonia)
e_dhdft = cp('pbe0-2')*627.5095
clean()

activate(water)
e_dhdft = cp('pbe0-2')*627.5095
clean()

# works but too long for test case            
activate(ethene)                             
e_dhdft = cp('pbe0-2')*627.5095                     
compare_values(-1.00, e_dhdft, 2, 'Ethene')    # TEST
clean()                                       

