#! UADC(2)/cc-pvdz calculation of 5 states for the cyanide radical

molecule cn {
    0 2
    C 0 0 0
    N 0 0 2.2143810738114829
    symmetry c1
    units au
}

set {
    reference uhf
    basis cc-pvdz
    guess core
    roots_per_irrep [6]
}

# Run normal calculation of excitation energies (no properties)
energy_adc, wfn = energy('adc(2)', return_wfn=True)

# Alternative: Run computation of properties as well
properties('adc(2)', properties=["oscillator_strength", "dipole"])

ref_gs = -92.4393443893764                                                            #TEST
ref_energies = [0.07889574351228804, 0.0788957435122895, 0.14056160788035324,         #TEST
                0.2539287082339503, 0.2836725608233926, 0.28367256082786113]          #TEST
ref_oscillator = [0.004008231200836354, 0.004008231200823993, 0.022197876310421312,   #TEST
                  0.0062467660198593546, 0.003470352994081789, 0.0034703530350731608] #TEST
compare_values(ref_gs, energy_adc, 7, "ADC(2) GS energy")                             #TEST
compare_arrays(np.array([ref_energies]).T, wfn.variable("excitation energies").np,    #TEST
               1e-5, "ADC(2) excitation energies")                                    #TEST
