molecule {
   units bohr
   O         0.000000000000     0.000000000000    -0.115871406941
   H        -0.000000000000     1.349298382747     0.919481656977
   H        -0.000000000000    -1.349298382747     0.919481656977
}

plugin_load("./plugin_backtrans.so")

set  {
   basis         DZ
   print         1
   wfn           ccsd
   dertype       first
   delete_tei    false
   d_convergence 10
   r_convergence 10
   e_convergence 10
   jobtype       sp
   reference     uhf
}


scf()
transqt2()
ccsort()
ccenergy()
cchbar()
cclambda()
ccdensity()

plugin("./plugin_backtrans.so")

deriv()
