#! OCEPA cc-pVDZ energy with ROHF initial guess for the NO radical

refnuc      =   25.59060766929188  #TEST
refscf      = -129.25292774600072 #TEST
refocepa    = -129.67618786551816 #TEST

memory 250 mb

molecule no {
0 2
n
o 1 1.158
}

set global {
  basis cc-pcvdz
  reference rohf
  guess gwh
}
energy('ocepa')

compare_values(refnuc, get_variable("NUCLEAR REPULSION ENERGY"), 6, "Nuclear Repulsion Energy (a.u.)"); #TEST
compare_values(refscf, get_variable("SCF TOTAL ENERGY"), 6, "SCF Energy (a.u.)");             #TEST
compare_values(refocepa, get_variable("OCEPA(0) TOTAL ENERGY"), 6, "OCEPA(0) Total Energy (a.u.)");                   #TEST
