#! UHF and broken-symmetry UHF energy for molecular hydrogen.


molecule h2 {
0 1
H
H 1 3.0
symmetry c1
}

set e_convergence 12
set basis cc-pvdz

thisSCF = energy('uhf')
set guess_mix true
thisBSSCF = energy('uhf')

