#! MBIS calculation on ZnO



 [-9.07105295e+00,  1.13798162e-11,  2.11585798e-07, -9.07105295e+00,
 [-4.84268258e+00,  3.95401901e-12, -5.96720590e-07, -4.84268258e+00,

 [-7.60058555e-06, -5.04913195e-07,  4.03517260e-01, -2.53352310e-06,
   3.25545161e-12, -2.18608318e-06, -1.51474301e-06,  4.03517260e-01,
 [-9.89676088e-07, -6.57469240e-08,  4.45294729e-01, -3.29900820e-07,
  -2.23989073e-12, -4.92237390e-07, -1.97235542e-07,  4.45294729e-01,

# Reference Atomic Volumes from Horton
# Zn 63.44244885428372
# O  27.11773534802673


# Reference Valence Widths from Horton
# Zn 0.7055868992061838
# O 0.40965750899754616


[0.652824],
[1.379211]])

molecule mol {
  0 1
  Zn 0.00 0.00 0.00
  O  0.00 0.00 1.98
  symmetry c1
  no_reorient
  no_com
}

set {
  scf_type df
  d_convergence 10
  e_convergence 10
  mbis_radial_points 99
  mbis_spherical_points 350
  max_radial_moment 4
}

e, wfn = energy('hf/cc-pvdz', return_wfn=True)
oeprop(wfn, 'MBIS_VOLUME_RATIOS', title='ZnO SCF')

#NOTE: wfn.array_variable gives you flattened atomic multipole arrays; for expanded arrays, use wfn.variable
charges = wfn.array_variable('MBIS CHARGES')
dipoles = wfn.array_variable('MBIS DIPOLES')
quadrupoles = wfn.array_variable('MBIS QUADRUPOLES')
octupoles = wfn.array_variable('MBIS OCTUPOLES')
avols = wfn.array_variable('MBIS RADIAL MOMENTS <R^3>')
vwidths = wfn.array_variable('MBIS VALENCE WIDTHS')
vratios = wfn.array_variable('MBIS VOLUME RATIOS')

