#! OMP2 cc-pVDZ energy with ROHF initial guess orbitals for the NO radical

refnuc      =   25.59060766929188  #TEST
refscf      = -129.25292774600072 #TEST
refomp2     = -129.66800278355504 #TEST

molecule no {
0 2
n
o 1 1.158
}

set {
  basis cc-pcvdz
  reference rohf
  guess gwh
  mp2_type conv
}
energy('omp2')

compare_values(refnuc, get_variable("NUCLEAR REPULSION ENERGY"), 6, "Nuclear Repulsion Energy (a.u.)"); #TEST
compare_values(refscf, get_variable("SCF TOTAL ENERGY"), 6, "SCF Energy (a.u.)");             #TEST
compare_values(refomp2, get_variable("OMP2 TOTAL ENERGY"), 6, "OMP2 Total Energy (a.u.)");                   #TEST
