#! Cholesky decomposed REMP/cc-pVDZ energies for the CH3 radical









ESCF = -39.5329751322223117


molecule ch3 {
units bohr
0 2
C    0.00000000000000      0.00000000000000      0.00000000000000      
H    1.02022495761968     -1.76708146174709      0.00000000000000      
H    1.02022495761968      1.76708146174709      0.00000000000000      
H   -2.04044991523936      0.00000000000000      0.00000000000000      
}



set {
  reference uhf
  basis def2-SVP
  freeze_core true
  cc_type cd
  mp2_type cd
}  

set{
  e_convergence 1.0E-9
  r_convergence 1.0E-8
}

#Avals=[0.00, 0.10, 0.20, 0.30, 1.00]


#for A in Avals:
#     psi4.print_out("running step %5.2f" % A)
#     set remp_A=$A
#     e_remp2=energy('remp2')



set remp_A=0.00
e_remp2=energy('remp2')


set remp_A=0.10
e_remp2=energy('remp2')

set remp_A=0.20
e_remp2=energy('remp2')

set remp_A=0.30
e_remp2=energy('remp2')

set remp_A=1.00
e_remp2=energy('remp2')

