print '        <<< Literal ZMAT to Cfour >>>'

cfour {
ROHF-CCSD(T) energy calculation using frozen-core orbitals
N
H 1 R
H 1 R 2 A

R=1.008
A=105.0

*ACES2(CALC=CCSD(T),BASIS=qz2p
CC_PROG=ECC
ABCDTYPE=AOBASIS
MULT=2,REF=ROHF
OCCUPATION=3-1-1-0/3-0-1-0
DROP_MO=1
SCF_CONV=12
CC_CONV=12
MEMORY=20000000)
}

energy('cfour')

compare_values(-55.5847372601, get_variable('scf total energy'), 6, 'SCF')
compare_values(-0.002943388250, get_variable('mp2 singles energy'), 6, 'MP2 singles')
compare_values(-0.134798097365, get_variable('mp2 opposite-spin energy'), 6, 'MP2 OS corl')
compare_values(-0.038374828493, get_variable('mp2 same-spin energy'), 6, 'MP2 SS corl')
compare_values(-0.176116314109, get_variable('mp2 correlation energy'), 6, 'MP2 corl')
compare_values(-55.760853573995, get_variable('mp2 total energy'), 6, 'MP2')

compare_values(-55.777569551624, get_variable('ccsd total energy'), 6, 'CCSD')
compare_values(-0.1563275, get_variable('ccsd opposite-spin energy'), 6, 'CCSD OS corl')
compare_values(-0.0365048, get_variable('ccsd same-spin energy'), 6, 'CCSD SS corl')
compare_values(-55.782617433232, get_variable('ccsd(t) total energy'), 6, 'CCSD(T)')
compare_values(-0.1928322917376748, get_variable('ccsd correlation energy'), 6, 'CCSD corl')
compare_values(-0.005047881608, get_variable('(t) correction energy'), 6, '(T)')
compare_values(-55.782617433232, get_variable('current energy'), 6, 'CCSD(T)')

clean()
clean_variables()
cfour {}

print '        <<< Translation of ZMAT to Psi4 format to Cfour >>>'

molecule {
0 2
N
H 1 R
H 1 R 2 A

R=1.008
A=105.0
}

set {
cfour_CALC_level =CCSD(T)
cfour_BASIS=qz2p
cfour_REFerence=ROHF
cfour_OCCUPATION [[3,1,1,0],[3,0,1,0]]
cfour_SCF_CONV=12
cfour_PRINT=2
}

energy('cfour')

compare_values(-55.5847372601, get_variable('scf total energy'), 6, 'SCF')
compare_values(-0.002983751786, get_variable('mp2 singles energy'), 6, 'MP2 singles')
compare_values(-0.155770420921, get_variable('mp2 opposite-spin energy'), 6, 'MP2 OS corl')
compare_values(-0.041785354569, get_variable('mp2 same-spin energy'), 6, 'MP2 SS corl')
compare_values(-0.200539527276, get_variable('mp2 correlation energy'), 6, 'MP2 corl')
compare_values(-55.785276787341, get_variable('mp2 total energy'), 6, 'MP2')

compare_values(-55.802586766392, get_variable('ccsd total energy'), 6, 'CCSD')
compare_values(-0.174575174753, get_variable('ccsd opposite-spin energy'), 6, 'CCSD OS corl')
compare_values(-0.043274331574, get_variable('ccsd same-spin energy'), 6, 'CCSD SS corl')
compare_values(-55.807820706828, get_variable('ccsd(t) total energy'), 6, 'CCSD(T)')
compare_values(-0.217849506326, get_variable('ccsd correlation energy'), 6, 'CCSD corl')
compare_values(-0.005233940436, get_variable('(t) correction energy'), 6, '(T)')
compare_values(-55.807820706828, get_variable('current energy'), 6, 'CCSD(T)')

