#! single-point CCSD(T)/qz2p on NH2 with ecc, aobasis, frozen-core

print('        <<< Literal ZMAT to Cfour >>>')

cfour {
ROHF-CCSD(T) energy calculation using frozen-core orbitals
N
H 1 R
H 1 R 2 A

R=1.008
A=105.0

*ACES2(CALC=CCSD(T),BASIS=qz2p
CC_PROG=ECC
ABCDTYPE=AOBASIS
MULT=2,REF=ROHF
OCCUPATION=3-1-1-0/3-0-1-0
DROP_MO=1
SCF_CONV=12
CC_CONV=12
MEMORY=20000000)
}

energy('cfour')

compare_values(-55.5847372601, variable('scf total energy'), 6, 'SCF')  #TEST
compare_values(-0.002943388250, variable('mp2 singles energy'), 6, 'MP2 singles')  #TEST
compare_values(-0.134798097365, variable('mp2 opposite-spin correlation energy'), 6, 'MP2 OS corl')  #TEST
compare_values(-0.038374828493, variable('mp2 same-spin correlation energy'), 6, 'MP2 SS corl')  #TEST
compare_values(-0.176116314109, variable('mp2 correlation energy'), 6, 'MP2 corl')  #TEST
compare_values(-55.760853573995, variable('mp2 total energy'), 6, 'MP2')  #TEST

compare_values(-55.777569551624, variable('ccsd total energy'), 6, 'CCSD')  #TEST
#compare_values(-0.1563275, variable('ccsd opposite-spin correlation energy'), 6, 'CCSD OS corl')  #TEST
compare_values(-0.0365048, variable('ccsd same-spin correlation energy'), 6, 'CCSD SS corl')  #TEST
compare_values(-55.782617433232, variable('ccsd(t) total energy'), 6, 'CCSD(T)')  #TEST
compare_values(-0.1928322917376748, variable('ccsd correlation energy'), 6, 'CCSD corl')  #TEST
compare_values(-0.005047881608, variable('(t) correction energy'), 6, '(T)')  #TEST
compare_values(-55.782617433232, variable('current energy'), 6, 'CCSD(T)')  #TEST

clean()
clean_variables()
cfour {}

print('        <<< Translation of ZMAT to Psi4 format to Cfour >>>')

molecule {
0 2
N
H 1 R
H 1 R 2 A

R=1.008
A=105.0
}

set {
cfour_CALC_level =CCSD(T)
cfour_BASIS=qz2p
cfour_REFerence=ROHF
cfour_OCCUPATION [[3,1,1,0],[3,0,1,0]]
cfour_SCF_CONV=12
cfour_PRINT=2
}

energy('cfour')

compare_values(-55.5847372601, variable('scf total energy'), 6, 'SCF')  #TEST
compare_values(-0.002983751786, variable('mp2 singles energy'), 6, 'MP2 singles')  #TEST
compare_values(-0.155770420921, variable('mp2 opposite-spin correlation energy'), 6, 'MP2 OS corl')  #TEST
compare_values(-0.041785354569, variable('mp2 same-spin correlation energy'), 6, 'MP2 SS corl')  #TEST
compare_values(-0.200539527276, variable('mp2 correlation energy'), 6, 'MP2 corl')  #TEST
compare_values(-55.785276787341, variable('mp2 total energy'), 6, 'MP2')  #TEST

compare_values(-55.802586766392, variable('ccsd total energy'), 6, 'CCSD')  #TEST
compare_values(-0.174575174753, variable('ccsd opposite-spin correlation energy'), 6, 'CCSD OS corl')  #TEST
#compare_values(-0.043274331574, variable('ccsd same-spin correlation energy'), 6, 'CCSD SS corl')  #TEST
compare_values(-55.807820706828, variable('ccsd(t) total energy'), 6, 'CCSD(T)')  #TEST
compare_values(-0.217849506326, variable('ccsd correlation energy'), 6, 'CCSD corl')  #TEST
compare_values(-0.005233940436, variable('(t) correction energy'), 6, '(T)')  #TEST
compare_values(-55.807820706828, variable('current energy'), 6, 'CCSD(T)')  #TEST

