#! RHF-CC2-LR/cc-pVDZ static polarizabilities of HOF molecule.

molecule hof {
  0 1
  O
  H 1 0.97
  F 1 0.97 2 103.0
}

set {
  wfn cc2
  basis "cc-pVDZ"
  mu_irreps [0, 0, 1]
  dertype response
}

response('cc2')
clean()

