#! Vibrational and thermo analysis of several water isotopologs.
#! Demonstrates Hessian reuse for different temperatures, pressures, and isotopologs

# all reference values from NWChem (see other files in freq-isotope1 dir) unless otherwise notated

molecule h2o {
  units au
  O      0.00000000    0.00000000    0.00000000
  H      0.00000000    1.93042809   -1.10715266
  H      0.00000000   -1.93042809   -1.10715266
}

set basis sto-3g
set e_convergence 9
set g_convergence gau_verytight
set scf_type pk

optimize('hf', molecule=h2o)

d2o = h2o.clone()
d2o.set_mass(1, 2.014101779)
d2o.set_mass(2, 2.014101779)

hdo = h2o.clone()
hdo.set_mass(1, 2.014101779)

dto = h2o.clone()
dto.set_mass(1, 2.014101779)
dto.set_mass(2, 3.01604927)

e, wfn = freq('hf', molecule=h2o, return_wfn=True)
entropy = 1000 * psi_hartree2kcalmol * (variable('enthalpy correction') - variable('gibbs free energy correction')) / get_global_option('t')

set t 400.0

vibanal_wfn(wfn)
entropy = 1000 * psi_hartree2kcalmol * (variable('enthalpy correction') - variable('gibbs free energy correction')) / get_global_option('t')

set t 298.15

vibanal_wfn(wfn, molecule=d2o)
entropy = 1000 * psi_hartree2kcalmol * (variable('enthalpy correction') - variable('gibbs free energy correction')) / get_global_option('t')

vibanal_wfn(wfn, molecule=hdo)
entropy = 1000 * psi_hartree2kcalmol * (variable('enthalpy correction') - variable('gibbs free energy correction')) / get_global_option('t')

# For a symmetry-lowering isotopic substitution like HDO, psi4 recomputes
#  the rotational symmetry number with the lower point group. This only
#  affects rotational entropy. That's why the above (non-default) molpro
#  value from the above was computed with sym=cs. To replicate molpro &
#  qchem's default, have to set rotational_symmetry_number to H2O value.

set rotational_symmetry_number 2

vibanal_wfn(wfn, molecule=hdo)
entropy = 1000 * psi_hartree2kcalmol * (variable('enthalpy correction') - variable('gibbs free energy correction')) / get_global_option('t')

# Could just reset the symmetry number to 1 since that's the correct
#  value for DTO. But the below will calculate the default.

psi4.revoke_global_option_changed('rotational_symmetry_number')

set hessian_write on
vibanal_wfn(wfn, molecule=dto)
entropy = 1000 * psi_hartree2kcalmol * (variable('enthalpy correction') - variable('gibbs free energy correction')) / get_global_option('t')

# A. print all the vib-related info from original `e, wfn = freq()` call
for k, v in wfn.frequency_analysis.items():
    print(v)

# B. `set hessian_write on` above wrote all the vib- & thermo-related info from last analysis.
#    now, print all the vib- & thermo-related info from that file
with open(core.get_writer_file_prefix(dto.name()) + ".vibrec") as handle:
    import json
    jsondata = json.load(handle)
jsondata = {k: (v if k in ['molecule', 'hessian'] else json.loads(v)) for k, v in jsondata.items()}

for k, v in jsondata.items():
    print(k, v)

