molecule {
symmetry c1
0 1
H
H 1 3.0
}
set reference uhf
set e_convergence 12
set basis cc-pvdz
set guess_mix True
set guess sad
energy("scf")
compare_values(-0.99872135104496, psi4.variable("SCF TOTAL ENERGY"), 8, "SCF Energy")  #TEST
