#! External potential calculation with one Ghost atom and one point charge at the same position.

molecule mol {
  @N 0. 0. 1.
  N 0. 0. 0.
  no_reorient
  no_com
  symmetry c1
  -7 1
}

# Define point charge on top of first Ghost atom
Chrgfield = QMMM()
Chrgfield.extern.addCharge(7.05, 0., 0., 1.)
psi4.set_global_option_python('EXTERN', Chrgfield.extern)

set basis 6-31G
set reference rhf
e = energy('pbe')
compare_values(-110.2168666458496773, e, 6, 'Total energy') #TEST
