molecule {
O
H 1 R
H 1 R 2 A

R = .9
A = 104.5
}

plugin_load("./@plugin@.so")

set {
  basis sto-3g
  print 1
  e_convergence 10
  d_convergence 9
}

plugin("./@plugin@.so")
