#! SCF STO-3G finite-difference frequencies from energies

molecule h2o {
  symmetry c1
  O
  H 1 0.9894093
  H 1 0.9894093 2 100.02688
}

set globals {
  basis sto-3g
  d_converge 11
}

# Test against Analytic second derivatives from PSI3. #TEST
anal_freqs = PsiMod.Vector(3)  #TEST
anal_freqs.set(0, 0, 2170.045) #TEST
anal_freqs.set(0, 1, 4140.001) #TEST
anal_freqs.set(0, 2, 4391.065) #TEST

# PSI3 3-point formula:  #TEST
# A1 force constants     #TEST
#  0.3546775  -0.2277549 #TEST
# -0.2277549   0.4721543 #TEST
#                        #TEST
# B2 force constant      #TEST
#  0.7296851             #TEST

# Frequencies by 3-pt formula in C1 point group.
set globals { points 3 }

frequencies('scf')
fd_freqs = PsiMod.reference_wavefunction().frequencies()

compare_vectors(anal_freqs, fd_freqs, 1,                                                       #TEST
 "Analytic (PSI3) vs. Finite-difference (3-pt.) frequencies from energies to 0.1 cm^-1 (C1) ") #TEST
del fd_freqs

# Frequencies by 5-pt formula in C1 point group.
molecule h2o {
  symmetry c1
  O
  H 1 0.9894093
  H 1 0.9894093 2 100.02688
}

set globals { points 5 }

frequencies('scf')
fd_freqs = PsiMod.reference_wavefunction().frequencies()

compare_vectors(anal_freqs, fd_freqs, 3,                                                         #TEST
 "Analytic (PSI3) vs. Finite-difference (5-pt.) frequencies from energies to 0.001 cm^-1 (C1) ") #TEST

clean()

# Frequencies by 3-pt formula in C2v.
molecule h2o {
  O
  H 1 0.9894093
  H 1 0.9894093 2 100.02688
}

set globals { points 3 }

frequencies('scf')
fd_freqs = PsiMod.reference_wavefunction().frequencies()

compare_vectors(anal_freqs, fd_freqs, 1,                                                        #TEST
 "Analytic (PSI3) vs. Finite-difference (3-pt.) frequencies from energies to 0.1 cm^-1 (C2v) ") #TEST
del fd_freqs

# Frequencies by 5-pt formula in C2v.
molecule h2o {
  O
  H 1 0.9894093
  H 1 0.9894093 2 100.02688
}

set globals { points 5 }

frequencies('scf')
fd_freqs = PsiMod.reference_wavefunction().frequencies()

compare_vectors(anal_freqs, fd_freqs, 3,                                                          #TEST
 "Analytic (PSI3) vs. Finite-difference (5-pt.) frequencies from energies to 0.001 cm^-1 (C2v) ") #TEST

# Frequencies by 5-pt formula for A1 irrep only.

molecule h2o {
  O
  H 1 0.9894093
  H 1 0.9894093 2 100.02688
}

set globals { points 5 }

a1_freqs = PsiMod.Vector(2)          #TEST
a1_freqs.set(0, 0, anal_freqs[0])    #TEST
a1_freqs.set(0, 1, anal_freqs[1])    #TEST

frequencies('scf', irrep=1)
fd_freqs = PsiMod.reference_wavefunction().frequencies()

compare_vectors(a1_freqs, fd_freqs, 3, "A1 frequencies only (5-pt. formula)") #TEST

del a1_freqs #TEST
clean()

# Frequencies by 5-pt formula for B2 irrep only.

molecule h2o {
  O
  H 1 0.9894093
  H 1 0.9894093 2 100.02688
}

set globals { points 5 }

b2_freqs = PsiMod.Vector(1)       #TEST
b2_freqs.set(0, 0, anal_freqs[2]) #TEST

frequencies('scf', irrep=4)
fd_freqs = PsiMod.reference_wavefunction().frequencies()

compare_vectors(b2_freqs, fd_freqs, 3, "B2 frequencies only (5-pt. formula)") #TEST

del b2_freqs   #TEST
del anal_freqs #TEST
clean()

