#! ADC/aug-cc-pVDZ on two water molecules that are distant from 1000 angstroms from each other

molecule h2ox2 {
   o                               0.000000    0.000000    0.118621
   h                               0.000000    0.756713   -0.474484
   h                               0.000000   -0.756713   -0.474484
   o                               1000.000000    0.000000    0.118621
   h                               1000.000000    0.756713   -0.474484
   h                               1000.000000   -0.756713   -0.474484
 symmetry c1
}

set {
    reference rhf
    basis aug-cc-pvdz
    guess core
    roots_per_irrep [2]
}

ref_energy = -152.52670794053822
adc_energy = energy('adc')
compare_values(ref_energy, adc_energy, 7, "ADC GS energy")                            #TEST
