#! Tests RHF CCSD(T)gradients

molecule h2o {
0 1
O
H 1 R
H 1 R 2 A

R = 1.0
A = 104.5
}

set {
   reference rhf
   basis 6-31g 
   r_convergence 13
   e_convergence 13
   d_convergence 13
   qc_module ccenergy  # signals to use the analytic ccsd(t) gradients
}

analytic, wfn = gradient('ccsd(t)', return_wfn=True)
             [ 0.00000000000000,     0.00000000000000,    -0.02788939642641],  # FINITE DIFFERENCE 5 POINT FORMULA
             [ 0.00000000000000,    -0.00904503210340,     0.01394469821321],
             [ 0.00000000000000,     0.00904503210340,     0.01394469821321]
           ])

molecule N2 {
0 1
N 0 0 0
N 0 0 1.118928
symmetry C1
}

set {
   reference rhf
   basis 6-31g 
   e_convergence 13
   r_convergence 13
   d_convergence 13
}

analytic, wfn = gradient('ccsd(t)', return_wfn=True)
    [     0.00000000000000,     0.00000000000000,     0.03761158318898],  # FINITE DIFFERENCE 5 POINT FORMULA
    [     0.00000000000000,     0.00000000000000,    -0.03761158318898]
	   ])


