#! ADC(2)-x/cc-pvdz calculation of 10 water singlet excited states

molecule h2o {
    O 0 0 0
    H 0 0 1.795239827225189
    H 1.693194615993441 0 -0.599043184453037
    symmetry c1
    units au
}

set {
    reference rhf
    basis cc-pvdz
    guess core
    roots_per_irrep [10]
}

# Run normal calculation of excitation energies (no properties)
energy_adc, wfn = energy('adc(2)-x', return_wfn=True)

# Alternative: Run computation of properties as well
properties('adc(2)-x', properties=["oscillator_strength", "dipole"])

ref_gs = -76.22940338786378                                                                  #TEST
ref_energies = [0.28227311218203727, 0.35868218788833417, 0.36871292168497205,               #TEST
                0.4472740652617952, 0.5460112230378373, 0.653535811736795,                   #TEST
                0.7928777551475938, 0.8244156788923991, 0.8673214771377685,                  #TEST
                0.9082885485042564]                                                          #TEST
ref_oscillator = [0.025960850948543605, 6.468761726310912e-08, 0.08467176203874036,          #TEST
                  0.06406632727933954, 0.29839892896406034, 0.10375697264683044,             #TEST
                  1.9395432917846712e-06, 0.0716230294873295, 0.002591372485129271,          #TEST
                  0.13331471017766752]                                                       #TEST
                                                                                             #TEST
compare_values(ref_gs, energy_adc, 6, "ADC(2)-x GS energy")                                  #TEST
compare_arrays(np.array([ref_energies]).T, wfn.variable("ADC(2)-x excitation energies").np,  #TEST
               1e-5, "ADC(2)-x excitation energies")                                         #TEST
