#! Lithium test for coverage 

molecule li_anion {
-1 1
Li
}

set stability_analysis check
set basis cc-pVDZ
set scf_type out_of_core
set damping_percentage 50

scf_e = energy("SCF")
compare_values(-7.41681960717086, scf_e, 6, "Lithium anion stability")

# Run several perturbations
molecule helium {
O
H 1 1.1
H 1 1.1 2 104
symmetry c1
}

set scf_type df
set damping_percentage 0
set stability_analysis none
scf_e = energy("SCF")
compare_values(-75.98977754532046, scf_e, 6, "Water RHF") #TEST

set perturb_h true
set perturb_with dipole_y
set perturb_magnitude 1
scf_e = energy("SCF")
compare_values(-81.35464281519849, scf_e, 6, "Water Perturb Y RHF") #TEST

set perturb_with sphere
set theta_points 10
set phi_points 10
scf_e = energy("SCF")
compare_values(-76.00108612517847, scf_e, 6, "Water Perturn Spherical RHF") #TEST

# Try out UHF NOS
molecule water_anion {
-1 2
O
H 1 1.1
H 1 1.1 2 104
}

set perturb_h false
set reference uhf
set save_uhf_nos true
scf_e, scf_wfn = energy("SCF", return_wfn=True)

ref_nos = psi4.core.Matrix.np_read("water_anion_UHF_NOS")         #TEST
compare_matrices(ref_nos, scf_wfn.Ca(), 8, "Water Anion UHF NOS") #TEST



