#! He2+ FCI/cc-pVDZ Transition Dipole Moment

memory 250 mb



molecule he2p {
1 2
He 
He 1 3.0
symmetry c2v
}

set {
reference rohf
basis cc-pVDZ 
docc [1,0,0,0]
socc [1,0,0,0]
dipmom true
num_roots 2
}

thisenergy = energy('fci')

