#! He2+ FCI/cc-pVDZ Transition Dipole Moment



molecule he2p {
1 2
He 
He 1 3.0
symmetry c2v
}

set {
wfn detci
reference rohf
fci true
basis cc-pVDZ 
docc [1,0,0,0]
socc [1,0,0,0]
dipmom true
fci true
ex_lvl 3
num_roots 2
}

thisenergy = energy('detci')


clean()
