#! testing best practices options, part i

molecule {
O
H 1 R
H 1 R 2 A

R=0.958
A=104.5
}

set basis 6-31g
set cfour_basis 6-31G

energy('c4-scf')

