#! functionals ionization energies vs. other programs

molecule h2o {
0 1
O  -1.551007  -0.114520   0.000000
H  -1.934259   0.762503   0.000000
H  -0.599677   0.040712   0.000000
no_reorient
}

molecule h2o_plus {
1 2
O  -1.551007  -0.114520   0.000000
H  -1.934259   0.762503   0.000000
H  -0.599677   0.040712   0.000000
no_reorient
}

set {
   basis 6-31G
   dft_radial_points 200
   dft_spherical_points 590                
   guess sad
   e_convergence 9 
   d_convergence 9 
}

qchem_data = {                              #TEST
    'PWB6K':    0.45356644150000136,        #TEST
   'PW6B95':    0.45665801910000425,        #TEST
  'wB97X-D':     0.4575912357999954,        #TEST
  'revTPSS':     0.4499706673000077,        #TEST
     'TPSS':     0.4510368445000097,        #TEST
 'MGGA_MS2':     0.4466974329999971,        #TEST
 'MGGA_MS1':    0.44643390730000476,        #TEST
    'M11-L':    0.45987084239999376,        #TEST
 'LRC-wPBE':    0.45809929579999675,        #TEST
 'revTPSSh':     0.4497777531999958,        #TEST
 'MGGA_MS0':     0.4465224137000092,        #TEST
   'BHHLYP':     0.4474902386999986,        #TEST
    'B1LYP':     0.4497408502000013,        #TEST
   'HCTH93':     0.4587611968999994,        #TEST
    'MPW1K':     0.4527968481999949,        #TEST
    'TPSSh':    0.45058617950000723,        #TEST
     'PBE0':    0.45304228290000026,        #TEST
'LRC-wPBEh':     0.4549011450999956,        #TEST
   'B3PW91':    0.45686379079999995,        #TEST
     'wB97':     0.4561211940999925,        #TEST
      'BOP':    0.45187115180000603,        #TEST
    'B3P86':     0.4638089920999988,        #TEST
      'M11':    0.45965997109999535,        #TEST
   'M08-HX':     0.4616204211000081,        #TEST
    'wB97X':    0.45647112829999514,        #TEST
 'B5050LYP':    0.45086574249999956,        #TEST
      'M06':      0.461046710399998,        #TEST
     'BLYP':    0.45206234800001255,        #TEST
    'X3LYP':    0.45495340819999797,        #TEST
   'M05-2X':     0.4583363492999979,        #TEST
    'B1B95':    0.45353288840000516,        #TEST
      'M05':     0.4574378920000015,        #TEST
    'B97-3':     0.4573836831000051,        #TEST
    'B97-D':     0.4562801577000073,        #TEST
     'BB1K':     0.4523318653999979,        #TEST
   #'B97-D3':     0.4562801576999931,        #TEST  # moved to dftd3/
   'M06-2X':    0.45840746970000623,        #TEST
     'dlDF':    0.46205070889999433,        #TEST
     'BP86':     0.4599766011999975,        #TEST
  'HCTH120':    0.46099125019999576,        #TEST
     'EDF1':    0.45572702409999977,        #TEST
   'M08-SO':     0.4656227382000111,        #TEST
  'HCTH407':     0.4627707722999901,        #TEST
  'MPW1B95':     0.4537920010999983,        #TEST
  'HCTH147':    0.46238362699999414,        #TEST
   'M06-HF':     0.4582368217999999,        #TEST
   'B3LYP5':    0.45355754610000076,        #TEST
     'PW91':     0.4573407123000095,        #TEST
    'B3LYP':     0.4572870674000029,        #TEST
      'PBE':    0.45520767669999884,        #TEST
   'MPWB1K':     0.4525753563999899,        #TEST
    'B97-K':     0.4498949295999921,        #TEST
      'B97':     0.4555394940999946,        #TEST
   'B1PW91':    0.45386435909999534,        #TEST
     'EDF2':     0.4571615420000086,        #TEST
    'B97-2':    0.45620779479999385,        #TEST
    'B97-1':     0.4551136999999983,        #TEST
    'O3LYP':     0.4543928605000076,        #TEST
'MGGA_MS2h':     0.4467710457999914,        #TEST
      'GAM':     0.4509109773999995,        #TEST
    'SOGGA':      0.451387498999992,        #TEST
'MGGA_MVSh':     0.4606380902999945,        #TEST
     'PKZB':     0.4468952399000017,        #TEST
  'SOGGA11':     0.4529071592999969,        #TEST
   'revPBE':       0.45274020250001,        #TEST
    'PBEOP':     0.4515908965999955,        #TEST
   'MN12-L':      0.454156009299993,        #TEST
   'N12-SX':    0.45222956309999063,        #TEST
 'MGGA_MVS':    0.46469785510001316,        #TEST
  'revPBE0':     0.4512137933000133,        #TEST
    'M06-L':    0.45687100319999274,        #TEST
 'MPW1PW91':    0.45442922100001226,        #TEST
  'MPW1PBE':    0.45364065569999923,        #TEST
   'MN15-L':     0.4579459769999943,        #TEST
'SOGGA11-X':     0.4601258852000001,        #TEST
  'MN12-SX':    0.46181516600000805,        #TEST
  'MPW1LYP':    0.45030728680001175,        #TEST
    'PBE50':    0.45096528610000064,        #TEST
      'N12':     0.4479283791999933,        #TEST
     'VSXC':    0.45478941460000044,        #TEST
'CAM-B3LYP':     0.4568003603999955,        #TEST
     'VV10':    0.45513665939999726,        #TEST
   'B97M-V':     0.4561660761999917,        #TEST
  'LC-VV10':    0.45568725450000613,        #TEST
  'wB97M-V':     0.4544676075000069,        #TEST
  'wB97X-V':     0.4553026020000033,        #TEST
## The following functionals are not included 
## in Psi4 at the moment. 
# 'wB97X-D3':    0.45707443810000825,       #TEST # needs Tweaks
#      'BMK':    0.45867548619999354,       #TEST # not in LibXC 3.0.0
#     'SCAN':    0.45171816110000407,       #TEST # not in LibXC 3.0.0
#   't-HCTH':     0.4623451142999926,       #TEST
#   'B3TLAP':    0.44737643580000963,       #TEST
#   'PBEsol':    0.45566370699999936,       #TEST
#    'SCAN0':     0.4496859364999892,       #TEST # not in LibXC 3.0.0
#  'LRC-BOP':     0.4595497115000029,       #TEST
#  't-HCTHh':    0.46015443139999945,       #TEST
#   'wM05-D':     0.4560790902000065,       #TEST
#  'BP86VWN':     0.4588991900999986,       #TEST
#  'wM06-D3':    0.45634592669999563,       #TEST
}                                           #TEST

# Current version of Psi4 does not match Q-Chem for these tests
expected_fail_qchem = ['O3LYP']             #TEST

# These tests fail to converge with the current version of Psi4
excluded_qchem_convergence_probs = {
}

# These tests are expected to fail with the current version of Psi4
# due to lack of UKS support 
excluded_qchem_not_uks_friendly = {
}

# The following data is from an older 
# version of Psi4 (~April 2017, SHA: 53e752c)  
old_psi4_data = {                     #TEST 
     'BP86': 0.45997666061779796,     #TEST
     'BLYP': 0.4520631769723451,      #TEST  
   #'B97-D3': 0.4562813415641358,      #TEST  moved to dftd3/
   'B3LYP5': 0.4535570976370309,      #TEST
      'PBE': 0.45520846640530976,     #TEST
   'M05-2X': 0.4583328495011756,      #TEST
  'wB97X-D': 0.4576016432866794,      #TEST
     'wB97': 0.45615296910915504,     #TEST
  'HCTH120': 0.46099230571738303,     #TEST
     'dlDF': 0.46204786302111245,     #TEST
     'PBE0': 0.4530414801763101,      #TEST
    'B97-1': 0.4551134986781449,      #TEST
     'PW91': 0.45735016732695044,     #TEST
    'B97-D': 0.4562813415641216,      #TEST
      'M05': 0.4574377079341474,      #TEST
    'B3LYP': 0.4572866176143293,      #TEST
  'HCTH407': 0.46277176698060885,     #TEST
  'HCTH147': 0.46238465771986625,     #TEST
    'SOGGA': 0.45733831961008775,     #TEST
    'B97-2': 0.4562076272818558,      #TEST
    'wB97X': 0.4588992888233463,      #TEST
}                                     #TEST

# Current version of Psi4 does not match pre-LibXC Psi4
# (~April 2017, SHA: 53e752c)
expected_fail_old_psi4 = ['wB97X', 'SOGGA']    #TEST

for func in qchem_data.keys():                                                                                 #TEST
    set reference uks                                                                                          #TEST
    cation  = energy(func, molecule=h2o_plus)                                                                  #TEST
    set reference rks                                                                                          #TEST
    neutral = energy(func, molecule=h2o)                                                                       #TEST
                                                                                                               #TEST
    psi4_ie = cation - neutral                                                                                 #TEST
                                                                                                               #TEST 
    qchem_ie = qchem_data[func]                                                                                #TEST
                                                                                                               #TEST 
    if func in expected_fail_qchem:                                                                            #TEST
        compare_values(qchem_ie, psi4_ie, 4, func + ': Psi4 vs. Q-Chem', exitonfail = False)                   #TEST
    else:                                                                                                      #TEST
        compare_values(qchem_ie, psi4_ie, 4, func + ': Psi4 vs. Q-Chem')                                       #TEST
                                                                                                               #TEST
    if func not in old_psi4_data:                                                                              #TEST
        continue                                                                                               #TEST    
                                                                                                               #TEST      
    old_psi4_ie = old_psi4_data[func]                                                                          #TEST
    if func in expected_fail_old_psi4:                                                                         #TEST
        compare_values(old_psi4_ie, psi4_ie, 6, func + ': Psi4 vs. Psi4 1.0 (pre-Libxc)', exitonfail = False)  #TEST
    else:                                                                                                      #TEST
        compare_values(old_psi4_ie, psi4_ie, 6, func + ': Psi4 vs. Psi4 1.0 (pre-Libxc)')                      #TEST
