#! 6-31G** H2O Test CISD Energy Point with subspace collapse

memory 250 mb

refnuc   =  8.804686618639053 #TEST
refscf   = -76.01729655528302 #TEST
refci    = -76.2198474493046 #TEST
refcorr  = refci - refscf    #TEST

molecule h2o {
    O
    H 1 1.00
    H 1 1.00 2 103.1
}

set globals {
  basis 6-31G**
}

set detci {
  guess_vector = UNIT
  r_convergence = 5
  max_num_vecs = 4
  collapse_size = 2
}

thisenergy = energy('cisd')

# 7 digits on CI seems ok, but we may need to back it down to 6 later #TEST
compare_values(refnuc, h2o.nuclear_repulsion_energy(), 9, "Nuclear repulsion energy") #TEST 
compare_values(refscf, get_variable("SCF total energy"),     8, "SCF energy") #TEST
compare_values(refci, thisenergy,                      7, "CI energy") #TEST
compare_values(refcorr, get_variable("CI CORRELATION ENERGY"), 7, "CI correlation energy") #TEST
