#! SCF level shift on an RKS computation

memory 8 gb

molecule {
0 1
Cr        0.47834117238031    0.45636471654971    0.09285402419506
O         1.55111099616190    1.09138241759496   -0.82993325785254
O        -0.61796524632964    1.38903190796852    0.67056903439165
Cl       -0.44331553251777   -1.03073713008178   -0.94412856229465
Cl        1.43568861030522   -0.43101191203143    1.65244876156047
}

set basis pcseg-1
set level_shift 5.0
energy('pbe')
