#! cc-pvdz H2O Test CCSD energies

molecule h2o {
0 1
O
H 1 1.0 
H 1 1.0 2 104.5
}

plugin_load('./plugin_gpu_ccsd.so')
memory 15000 mb
set {
  r_convergence 1e-7
  basis cc-pvdz
  freeze_core true
}
PsiMod.set_global_option('WFN', 'CCSD')
scf_energy = scf()
transqt2()
plugin('./plugin_gpu_ccsd.so')

clean()

refnuc  = 8.80146552997      # TEST
refscf  = -76.02141844515495 # TEST
refccsd = -0.214295329587    # TEST
refccsdt   = -0.217539266264 # TEST

