#! CC3/cc-pVDZ H$@@2$O R$@@e$ geom from Olsen et al., JCP 104, 8007 (1996)

memory 250 mb

molecule h2o {
 units bohr
 O 0.0  0.00000000 -0.00900000
 H 0.0 -1.51526300 -1.05889800
 H 0.0  1.51526300 -1.05889800
}

set {
 basis cc-pVDZ
}

energy("cc3")

