# H2O Re geom from Olsen et al., JCP 104, 8007 (1996)
molecule h2o {
 units bohr
 O 0.0  0.00000000 -0.00900000
 H 0.0 -1.51526300 -1.05889800
 H 0.0  1.51526300 -1.05889800
}

set {
 basis cc-pVDZ
}

energy("cc3")


clean()
