#! Non- and X2C-Relativistic SCF Energy Point


molecule h2o {
O
H 1 R
H 1 R 2 A

R = .9
A = 104.5
}

set {
  basis cc-pVDZ
  scf_type pk
}

testnr = energy('scf')
set relativistic x2c
testrel = energy('scf')

