molecule {
symmetry = c1
O
O 1 R
O 1 R 2 A

R = 1.4
A = 104.5
}

plugin_load("./plugin_rqchf.so")

set basis DZ
set basis cc-pvdz
set guess core
set d_convergence 0.01
set e_convergence 999999.9
scf()

set scf_type DF
set guess read
set d_convergence 12
set e_convergence 12
plugin("./plugin_rqchf.so")

# Just to see how much effort DIIS needs
set guess core
scf()
