#! The multiple guesses for DCT amplitudes for ODC-12.

refodc12     = -5.7749813965267096 #TEST

molecule he2 {
    He
    He 1 3.2
}

set {
    r_convergence 12
    ao_basis    none
    algorithm   simultaneous
    basis       6-31G**
    df_scf_guess false
    reference   uhf
}

set dcft_functional odc-12
energy('dcft')
compare_values(refodc12, variable("DCFT TOTAL ENERGY"), 10, "ODC-12 Energy");                #TEST

set dcft_guess cc
energy('dcft')
compare_values(refodc12, variable("DCFT TOTAL ENERGY"), 10, "ODC-12 Energy");                #TEST

set dcft_guess bcc
wfn = energy('dcft', return_wfn=True)[1]
compare_values(refodc12, variable("DCFT TOTAL ENERGY"), 10, "ODC-12 Energy");                #TEST

set dcft_guess dcft
set dcft maxiter 3 
energy('dcft', ref_wfn = wfn)
compare_values(refodc12, variable("DCFT TOTAL ENERGY"), 10, "ODC-12 Energy");                #TEST
