#! DF-CCSD(T) cc-pVDZ energy for the H2O molecule.

refcc       = -76.23811132362982 #TEST
refcc_t     = -76.24115214074588 #TEST

molecule h2o {
0 1
o
h 1 0.958
h 1 0.958 2 104.4776 
}

set {
  basis cc-pvdz
  df_basis_scf cc-pvdz-jkfit
  df_basis_cc cc-pvdz-ri
  scf_type df
  guess sad
  freeze_core true
  cc_type df
  qc_module occ
}

energy('ccsd(t)')

compare_values(refcc, get_variable("CCSD TOTAL ENERGY"), 6, "DF-CCSD");               #TEST
compare_values(refcc_t, get_variable("CCSD(T) TOTAL ENERGY"), 6, "DF-CCSD(T)");               #TEST


