#! MBIS regression test catching ECPs

molecule mol {
  0 1
  C 0.000000 0.000000 0.000000
  I 0.000000 0.000000 2.105000
  H 0.000000 0.937000 -0.297000
  H 0.811000 -0.469000 -0.297000
  H -0.811000 -0.469000 -0.297000
  symmetry c1
  no_reorient
  no_com
}

set {
  scf_type df
  d_convergence 8
  e_convergence 10
  mbis_radial_points 99
  mbis_spherical_points 350
  max_radial_moment 4
}

if psi4.core.get_option("scf", "orbital_optimizer_package") != "INTERNAL":  # KP-CONV
    psi4.set_options({"d_convergence": 3e-8})
set scf_properties ['MBIS_CHARGES', 'MBIS_VOLUME_RATIOS']

try:
    energy("mp2/def2-svp", molecule=hi)
    compare_values(0, 1, "MBIS should have raised an error for ECP-containing basis sets.")
except Exception:
    compare_values(1, 1, "Expected error caught: MBIS correctly rejects ECP systems.")
