molecule mol {
H
H 1 R

R = .9
}

plugin_load("./sointegrals.so")

set globals {
  basis sto-3g
}

set sointegrals {
  do_tei True
}

ref_wfn = psi4.new_wavefunction(mol, psi4.get_global_option('BASIS'))
plugin("sointegrals.so", ref_wfn)
