molecule {
H
H 1 R

R = .9
}

plugin_load("./sointegrals.so")

set globals {
  basis sto-3g
}

set sointegrals {
  do_tei True
}

plugin("sointegrals.so")
