# M06L/cc-pvdz 5D SP int=(grid=99770)

Ne

0 1
 Ne                0.0    0.0    0.0

