# M11L/cc-pVDZ 5D SP Int(Grid=99770)

Ne test

0 1
Ne 0.0 0.0 0.0

