#! Test INCFOCK with ROHF (Restricted Open-Shell Hartree-Fock)
#! Validates IncFock for open-shell systems
#! Uses screening=DENSITY, validates energy AND iteration count

print(' INCFOCK with ROHF') #TEST

molecule oxygen {
    0 3
    O
}

# Reference values from incfock=false, screening=density runs
# Note: iteration count may vary by +-1 across compilers due to floating-point differences
Eref_rohf = -74.787513074624
Iref_rohf = 14
Itol = 1  # allowed iteration tolerance

def compare_iterations(expected, computed, label):
    """Compare iteration counts with tolerance for compiler differences."""
    diff = abs(computed - expected)
    if diff > Itol:
        raise TestComparisonError(f"{label}: computed ({computed}) differs from expected ({expected}) by {diff} iterations (tolerance: {Itol})")
    compare_integers(1, 1, label)  # Record pass in test output

set {
    basis cc-pvdz
    scf_type direct
    screening density
    incfock true
    incfock_convergence 1e-10
    e_convergence 1e-10
    d_convergence 1e-8
    reference rohf
}

# ROHF with INCFOCK
E, wfn = energy('scf', return_wfn=True)
compare_values(Eref_rohf, E, 8, 'ROHF INCFOCK DENSITY: Energy') #TEST
compare_iterations(Iref_rohf, wfn.iteration_, 'ROHF INCFOCK DENSITY: Iterations') #TEST
