#! cc-pvdz H2O Test coupled-pair CISD against DETCI CISD
molecule h2o {
0 1
O
H 1 1.0 
H 1 1.0 2 104.5
}

set {
  e_convergence 1e-10
  d_convergence 1e-10
  r_convergence 1e-10
  basis cc-pvdz
  freeze_core true
  dipmom true
  print 2
}

set qc_module fnocc
energy('cisd')

corr1 = variable("CISD CORRELATION ENERGY")
dipz1 = variable("CISD DIPOLE")
qzz1  = variable("CISD QUADRUPOLE")

set qc_module detci
properties("cisd")

corr2 = variable("CI CORRELATION ENERGY")
dipz2 = variable("CI DIPOLE")
qzz2  = variable("CI QUADRUPOLE")

print_variables()

clean()
