molecule {
0 2
H
}

set reference uhf
set guess core
set scf_type pk
set df_scf_guess false

basis {
assign test

[test]
spherical
****
H 0
S 1 1.0
 1.0 1.0
****
}

energy('scf')
refE = -0.09576912160573
compare_values(refE, variable("SCF TOTAL ENERGY"), 6, "H energy, S basis")
