molecule h2o {
O
H 1 1.0
H 1 1.0 2 104.5
}

globals {
  basis sto-3g
}

set scf {
    scf_type direct
}

opt(scf_gradient)

