#! EOM-CCSD/6-31g excited state transition data for water cation

molecule h2o {
  1 2 
  O
  H 1 1 
  H 1 1 2 104.5
}

set {
  reference uhf 
  basis cc-pVDZ
  freeze_core true
  roots_per_irrep [0, 1, 1, 0]
}

wfn = properties('eom-ccsd', properties=['dipole', 'oscillator_strength'], return_wfn=True)[1]

### ccdensity checks



### Excitation energy checks



### Dipole check - validated against CFOUR 12/22



### Transition checks

}

