#! OMP2.5 cc-pVDZ gradient for the H2O molecule.

ref_vals = [                                                       #TEST
             [ 0.000000000000,  0.000000000000,  0.011479854084],  #TEST
             [ 0.000000000000,  0.001564076688, -0.005739927042],  #TEST
             [ 0.000000000000, -0.001564076688, -0.005739927042]   #TEST
           ]                                                       #TEST
ref = psi4.Matrix(3, 3)                                          #TEST
ref.set(ref_vals)

molecule h2o {
0 1
o
h 1 0.958
h 1 0.958 2 104.4776 
}

set {
  basis cc-pvdz
}

grad = gradient('omp2.5')

compare_matrices(ref, grad, 5, "Analytic gradients")  #TEST

