#! 6-31G** H2O Test CISD Energy Point

memory 250 mb

refnuc   =   8.8046866186391  #TEST
refscf   = -76.0172965552830  #TEST
refci    = -76.2198474486343  #TEST
refcorr  = refci - refscf     #TEST

molecule h2o {
    O
    H 1 1.00
    H 1 1.00 2 103.1
}

set globals {
  basis 6-31G**
  hd_avg hd_kave
  icore 2
}

thisenergy = energy('cisd')

compare_values(refnuc, h2o.nuclear_repulsion_energy(), 9, "Nuclear repulsion energy") #TEST 
compare_values(refscf, get_variable("SCF total energy"),     9, "SCF energy") #TEST
compare_values(refci, thisenergy,                      7, "CI energy") #TEST
compare_values(refcorr, get_variable("CI CORRELATION ENERGY"), 7, "CI correlation energy") #TEST
