molecule efp_spec {
 efp h2o_l
   0.00 -0.70 0.0  # H2O
   1.48  0.35 0.0
  -1.48  0.35 0.0
  --
 efp h2o_l
   4.93  3.49 0.0  # H2O
   6.41  4.54 0.0
   3.44  4.54 0.0
 no_reorient
 no_com
}

set {
#  print 10
  step_type nr
#  hess_update none
  geom_maxiter 100
}

set efp {
  dertype first
}

optimize('efp')

