#C     0.00000000    -0.69801390     0.00000000 # H2O
#O     1.48150016     0.34900695     0.00000000
#O    -1.48150016     0.34900695     0.00000000
#C     4.9260         3.49007        0.0 # H2O
#O     6.4075         4.53709        0.0
#O     3.4445         4.53709        0.0

molecule efp_spec {
efp h2o_l
  0.00 -0.70 0.0  # H2O
  1.48  0.35 0.0
 -1.48  0.35 0.0
 --
efp h2o_l
  4.93  3.49 0.0  # H2O
  6.41  4.54 0.0
  3.44  4.54 0.0
no_reorient
no_com
}

set efp{
dertype first
}

optimize('efp')
