#! single-point MP4/qz2p on NH2

print('        <<< Literal ZMAT to Cfour >>>')

cfour {
ROHF-MP4 energy calculation
N
H 1 R
H 1 R 2 A

R=1.008
A=105.0

*ACES2(CALC=MP4,BASIS=qz2p
MULT=2,REF=ROHF
OCCUPATION=3-1-1-0/3-0-1-0
SCF_CONV=12
MEMORY=20000000)
}

energy('cfour')

compare_values(-55.5847372601, variable('scf total energy'), 6, 'SCF')  #TEST
compare_values(-0.002983751786, variable('mp2 singles energy'), 6, 'MP2 singles')  #TEST
compare_values(-0.155770420921, variable('mp2 opposite-spin correlation energy'), 6, 'MP2 OS corl')  #TEST
compare_values(-0.041785354569, variable('mp2 same-spin correlation energy'), 6, 'MP2 SS corl')  #TEST
compare_values(-0.200539527276, variable('mp2 correlation energy'), 6, 'MP2 corl')  #TEST
compare_values(-55.785276787341, variable('mp2 total energy'), 6, 'MP2')  #TEST
compare_values(-0.215858889, variable('mp3 correlation energy'), 6, 'MP3 corl')  #TEST
compare_values(-55.800596149, variable('mp3 total energy'), 6, 'MP3')  #TEST
compare_values(-55.807004598386, variable('mp4 total energy'), 6, 'MP4')  #TEST
#compare_values(-55.806988018769, variable('mp4 total energy'), 6, 'MP4')  #TEST
compare_values(-0.222267338321, variable('mp4 correlation energy'), 6, 'MP4 corl')  #TEST
#compare_values(-0.222250758669, variable('mp4 correlation energy'), 6, 'MP4 corl')  #TEST
##compare_values(-55.806988018769, variable('current energy'), 6, 'Current')  #TEST
##compare_values(-0.222250758669, variable('current correlation energy'), 6, 'Current corl')  #TEST
compare_values(-55.5847372601, variable('current reference energy'), 6, 'Current ref')  #TEST
#compare_values(-0.217505967817, variable('mp4(sdq) correlation energy'), 6, 'MP4(SDQ) corl')  #TEST
#compare_values(-55.802243227882, variable('mp4(sdq) total energy'), 6, 'MP4(SDQ)')  #TEST
compare_values(-0.217489388149, variable('mp4(sdq) correlation energy'), 6, 'MP4(SDQ) corl')  #TEST
compare_values(-55.802226648249, variable('mp4(sdq) total energy'), 6, 'MP4(SDQ)')  #TEST
##compare_values(-0.004761370505, variable('mp4(t) correction energy'), 6, 'MP4(T)')  #TEST

clean()
clean_variables()
cfour {}

print('        <<< Translation of ZMAT to Psi4 format to Cfour >>>')

banner('ROHF-MP4 energy calculation')

molecule {
0 2
N
H 1 R
H 1 R 2 A

R=1.008
A=105.0
}

set {
cfour_CALC_level=MP4
cfour_BASIS=qz2p
cfour_REFerence=ROHF
cfour_occupation [[3,1,1,0],[3,0,1,0]]
cfour_SCF_CONV=12
}

energy('cfour')

compare_values(-55.5847372601, variable('scf total energy'), 6, 'SCF')  #TEST
compare_values(-0.002983751786, variable('mp2 singles energy'), 6, 'MP2 singles')  #TEST
compare_values(-0.155770420921, variable('mp2 opposite-spin correlation energy'), 6, 'MP2 OS corl')  #TEST
compare_values(-0.041785354569, variable('mp2 same-spin correlation energy'), 6, 'MP2 SS corl')  #TEST
compare_values(-0.200539527276, variable('mp2 correlation energy'), 6, 'MP2 corl')  #TEST
compare_values(-55.785276787341, variable('mp2 total energy'), 6, 'MP2')  #TEST
compare_values(-0.215858889, variable('mp3 correlation energy'), 6, 'MP3 corl')  #TEST
compare_values(-55.800596149, variable('mp3 total energy'), 6, 'MP3')  #TEST
compare_values(-55.807004598386, variable('mp4 total energy'), 6, 'MP4')  #TEST
#compare_values(-55.806988018769, variable('mp4 total energy'), 6, 'MP4')  #TEST
compare_values(-0.222267338321, variable('mp4 correlation energy'), 6, 'MP4 corl')  #TEST
#compare_values(-0.222250758669, variable('mp4 correlation energy'), 6, 'MP4 corl')  #TEST
##compare_values(-55.806988018769, variable('current energy'), 6, 'Current')  #TEST
##compare_values(-0.222250758669, variable('current correlation energy'), 6, 'Current corl')  #TEST
compare_values(-55.5847372601, variable('current reference energy'), 6, 'Current ref')  #TEST
#compare_values(-0.217505967817, variable('mp4(sdq) correlation energy'), 6, 'MP4(SDQ) corl')  #TEST
#compare_values(-55.802243227882, variable('mp4(sdq) total energy'), 6, 'MP4(SDQ)')  #TEST
compare_values(-0.217489388149, variable('mp4(sdq) correlation energy'), 6, 'MP4(SDQ) corl')  #TEST
compare_values(-55.802226648249, variable('mp4(sdq) total energy'), 6, 'MP4(SDQ)')  #TEST
##compare_values(-0.004761370505, variable('mp4(t) correction energy'), 6, 'MP4(T)')  #TEST

clean()
clean_variables()
cfour {}

print('        <<< Translation of ZMAT to Psi4 format to Cfour >>>')

banner('ROHF-MP4 energy calculation')

molecule {
0 2
N
H 1 R
H 1 R 2 A

R=1.008
A=105.0
}

set {
cfour_CALC_level=MP4
cfour_BASIS=qz2p
cfour_REFerence=ROHF
cfour_occupation [[3,1,1,0],[3,0,1,0]]
cfour_SCF_CONV=12
}

energy('cfour')

compare_values(-55.5847372601, variable('scf total energy'), 6, 'SCF')  #TEST
compare_values(-0.002983751786, variable('mp2 singles energy'), 6, 'MP2 singles')  #TEST
compare_values(-0.155770420921, variable('mp2 opposite-spin correlation energy'), 6, 'MP2 OS corl')  #TEST
compare_values(-0.041785354569, variable('mp2 same-spin correlation energy'), 6, 'MP2 SS corl')  #TEST
compare_values(-0.200539527276, variable('mp2 correlation energy'), 6, 'MP2 corl')  #TEST
compare_values(-55.785276787341, variable('mp2 total energy'), 6, 'MP2')  #TEST
compare_values(-0.215858889, variable('mp3 correlation energy'), 6, 'MP3 corl')  #TEST
compare_values(-55.800596149, variable('mp3 total energy'), 6, 'MP3')  #TEST
compare_values(-55.807004598386, variable('mp4 total energy'), 6, 'MP4')  #TEST
#compare_values(-55.806988018769, variable('mp4 total energy'), 6, 'MP4')  #TEST
compare_values(-0.222267338321, variable('mp4 correlation energy'), 6, 'MP4 corl')  #TEST
#compare_values(-0.222250758669, variable('mp4 correlation energy'), 6, 'MP4 corl')  #TEST
##compare_values(-55.806988018769, variable('current energy'), 6, 'Current')  #TEST
##compare_values(-0.222250758669, variable('current correlation energy'), 6, 'Current corl')  #TEST
compare_values(-55.5847372601, variable('current reference energy'), 6, 'Current ref')  #TEST
#compare_values(-0.217505967817, variable('mp4(sdq) correlation energy'), 6, 'MP4(SDQ) corl')  #TEST
#compare_values(-55.802243227882, variable('mp4(sdq) total energy'), 6, 'MP4(SDQ)')  #TEST
compare_values(-0.217489388149, variable('mp4(sdq) correlation energy'), 6, 'MP4(SDQ) corl')  #TEST
compare_values(-55.802226648249, variable('mp4(sdq) total energy'), 6, 'MP4(SDQ)')  #TEST
#compare_values(-0.004761370505, variable('mp4(t) correction energy'), 6, 'MP4(T)')  #TEST

# New run in cfour
#        S-MBPT(2)       -0.002983751785   -55.587721011671
#        D-MBPT(2)       -0.197555775958   -55.785276787630
#        S-MBPT(3)       -0.000364945823   -55.785641733453
#        D-MBPT(3)       -0.014954415997   -55.800596149450
#        L-MBPT(4)       -0.004843986344   -55.805440135794
#       NL-MBPT(4)        0.003213484296   -55.802226651498
#     WT12-MBPT(4)        0.000000003250   -55.802226648249
#        T-MBPT(4)       -0.004761370520   -55.806988018769
#  -----------------------------------------------------------
#  Total MBPT(4)       energy:   -55.806988018769 a.u.

