#! OMP2 cc-pVDZ energy for the NO molecule.


molecule {
0 2
N
O 1 1.158
}

set {
  basis cc-pvdz
  df_basis_scf cc-pvdz-jkfit
  df_basis_cc cc-pvdz-ri
  scf_type df
  guess sad
  reference uhf
  mp2_type df
}
energy('omp2')

# Warning! DFOCC orbitals converge so slowly, we can't be sure we have the OMP2 energy to 6 decimals.

