print '        <<< Literal ZMAT to Cfour >>>'

cfour {
CCSD(T) energy calculation using xecc
O
H 1 R
H 1 R 2 A

R=0.958
A=104.5

*ACES2(CALC=CCSD(T),BASIS=qz2p
CC_PROG=ECC
SCF_CONV=12
CC_CONV=12
MEMORY=20000000)
}

energy('cfour')

compare_values(-76.0627484601, get_variable('scf total energy'), 6, 'SCF')
compare_values(-0.270191667216, get_variable('mp2 correlation energy'), 6, 'MP2 corl')
compare_values(-76.338453951890, get_variable('ccsd total energy'), 6, 'CCSD')
compare_values(-0.2757054917725157, get_variable('ccsd correlation energy'), 6, 'CCSD corl')
compare_values(-76.345717549886, get_variable('ccsd(t) total energy'), 6, 'CCSD(T)')

clean()
clean_variables()
cfour {}

print '        <<< Translation of ZMAT to Psi4 format to Cfour >>>'

molecule {
O
H 1 R
H 1 R 2 A

R=0.958
A=104.5
}

set {
cfour_CALC_level=CCSD(T)
cfour_BASIS=qz2p
cfour_CC_PROGRAM=ECC
cfour_SCF_CONV=12
cfour_CC_CONV=12
}

energy('cfour')

compare_values(-76.0627484601, get_variable('scf total energy'), 6, 'SCF')
compare_values(-0.270191667216, get_variable('mp2 correlation energy'), 6, 'MP2 corl')
compare_values(-76.338453951890, get_variable('ccsd total energy'), 6, 'CCSD')
compare_values(-0.2757054917725157, get_variable('ccsd correlation energy'), 6, 'CCSD corl')
compare_values(-76.345717549886, get_variable('ccsd(t) total energy'), 6, 'CCSD(T)')

