molecule {
H
H 1 R

R = .9
}

plugin_load("./plugin_sointegrals.so")

set globals {
  basis sto-3g
}

set plugin_sointegrals {
  do_tei True
}

plugin("plugin_sointegrals.so")
