#! Density fitted MP2 cc-PVDZ/cc-pVDZ-RI computation of formic acid dimer binding energy
#! using automatic counterpoise correction.  Monomers are specified using Cartesian coordinates.

Enuc = 235.946638332857646 #TEST 
Ecp  = -0.0224119246       #TEST

molecule formic_dim {
   0 1
   C  -1.888896  -0.179692   0.000000
   O  -1.493280   1.073689   0.000000
   O  -1.170435  -1.166590   0.000000
   H  -2.979488  -0.258829   0.000000
   H  -0.498833   1.107195   0.000000
   --
   0 1
   C   1.888896   0.179692   0.000000
   O   1.493280  -1.073689   0.000000
   O   1.170435   1.166590   0.000000
   H   2.979488   0.258829   0.000000
   H   0.498833  -1.107195   0.000000
   symmetry c1
   units angstrom 
   no_reorient
}

set globals {
   basis cc-pvdz
   df_basis_scf cc-pvdz-jkfit
   df_basis_mp2 cc-pvdz-ri
   # not necessary to specify df_basis* for Dunning basis sets
   scf_type df
   guess sad
   d_converge 11
}

e_cp = cp('dfmp2')

compare_values(Enuc, formic_dim.nuclear_repulsion_energy(), 9, "Nuclear Repulsion Energy") #TEST
compare_values(Ecp, e_cp, 5, "CP Corrected cc-pVDZ/cc-pVDZ-RI DFMP2")                      #TEST

clean()
