molecule h2o {
0 1
O
H 1 1.0
H 1 3.0 2 104.5
}

plugin_load('./plugin_broyden.so')

set {
basis aug-cc-pvdz
scf_type direct
guess SAD
scf_type df
maxiter 100
broyden_maxiter 30
broyden_pade_n 3
broyden_start 1
broyden_maxiter 40
e_convergence 11
d_convergence 11
}

set scf_step broyden
plugin('./plugin_broyden.so')
set scf_step bfgs
plugin('./plugin_broyden.so')
energy('scf')
