#! Various constrained energy minimizations of HOOH with cc-pvdz RHF.
#! For "fixed" coordinates, the final value is provided by the user.


set {
  diis false
  basis cc-pvdz
  g_convergence gau_tight
}

# Constrained minimization with O-H bonds fixed to reach equilibrium at 0.950 Angstroms.
molecule {
  H
  O 1 0.90
  O 2 1.40 1 100.0 
  H 3 0.90 2 100.0 1 115.0
}

set optking {
  fixed_distance = ("
    1  2 0.950
    3  4 0.950
  ")
}
thisenergy = optimize('scf')

# Constrained minimization with O-O-H angles fixed to reach eq. at 105.0 degrees.
molecule {
  H
  O 1 0.90
  O 2 1.40 1 100.0
  H 3 0.90 2 100.0 1 115.0
}

set optking {
  fixed_distance = (" ")
  fixed_bend = ("
    1 2 3 105.0
    2 3 4 105.0
  ")
}
thisenergy = optimize('scf')

# Constrained minimization with H-O-O-H dihedral fixed to 120.0 degrees.
molecule {
  H
  O 1 0.90
  O 2 1.40 1 100.0
  H 3 0.90 2 100.0 1 115.0
}

set optking {
  fixed_bend = (" ")
  fixed_dihedral = ("
    1 2 3 4 120.0
  ")
}
thisenergy = optimize('scf')

