#! RI-SCF cc-pVTZ energy of water, with Z-matrix input and cc-pVTZ-RI auxilliary basis.

memory 250 mb

nucenergy =   8.80146552997207  #TEST
refenergy = -76.05098620307962  #TEST

molecule h2o {
    O
    H 1 1.0
    H 1 1.0 2 104.5
}

set globals {
  basis        cc-pVTZ
  scf_type     df
  e_convergence   10
}

thisenergy = energy('scf')

compare_values(nucenergy, h2o.nuclear_repulsion_energy(), 9, "Nuclear repulsion energy") #TEST
compare_values(refenergy, thisenergy, 9, "Reference energy")                             #TEST
