print '        <<< Literal ZMAT to Cfour >>>'

cfour {
CCSDT energy calculation 
O
H 1 R
H 1 R 2 A

R=0.958
A=104.5

*ACES2(CALC=CCSDT,BASIS=qz2p
SCF_CONV=12
CC_CONV=12
MEMORY=20000000)

}

energy('cfour')

compare_values(-76.062748460117, get_variable('scf total energy'), 6, 'SCF')
compare_values(-76.332940127333, get_variable('mp2 total energy'), 6, 'MP2')
compare_values(-0.283033259502, get_variable('ccsdt correlation energy'), 6, 'CCSDT corl')
compare_values(-76.345781719619, get_variable('ccsdt total energy'), 6, 'CCSDT')
compare_values(-0.283033259502, get_variable('current correlation energy'), 6, 'Current corl')

clean()
clean_variables()

print '        <<< Translation of ZMAT to Psi4 format to Cfour >>>'

molecule {
O
H 1 R
H 1 R 2 A

R=0.958
A=104.5
}

set {
cfour_CALC_level=CCSDT
cfour_BASIS=qz2p
cfour_SCF_CONV=12
cfour_CC_CONV=12
}

energy('cfour')

compare_values(-76.062748460117, get_variable('scf total energy'), 6, 'SCF')
compare_values(-76.332940127333, get_variable('mp2 total energy'), 6, 'MP2')
compare_values(-0.283033259502, get_variable('ccsdt correlation energy'), 6, 'CCSDT corl')
compare_values(-76.345781719619, get_variable('ccsdt total energy'), 6, 'CCSDT')
compare_values(-0.283033259502, get_variable('current correlation energy'), 6, 'Current corl')

