E_MP2J = -0.3097687355952962
E_MP2K =  0.1028582421031129

molecule {
0 1
O
H 1 1.0
H 1 1.0 2 104.7
symmetry c1
}

plugin_load("../plugin_mad_mp2.so")

set globals {
basis cc-pvdz
print 1
debug 3
scf_type direct
mp2_algorithm dfmp2
}

energy('scf')
plugin("../plugin_mad_mp2.so")

E_J = get_variable('E_MP2J')
E_K = get_variable('E_MP2K')

compare_values(E_MP2J, E_J, 6, "E_MP2J") #TEST
compare_values(E_MP2K, E_K, 6, "E_MP2K") #TEST
