# Any line starting with the # character is a comment line
#! Sample HF/cc-pVDZ H2O computation

memory 600 mb

molecule h2o {
  O 
  H 1 0.96
  H 1 0.96 2 104.5
}

set basis cc-pVDZ
energy('scf')


compare_values(-76.0266327341067125, get_variable('SCF TOTAL ENERGY'), 6, 'SCF energy')  #TEST
compare_csx()  #TEST



