#! cc-pvdz H2O Test Boys localization

molecule h2o {
0 1
 C    -1.4542845154   0.0000000000   2.1412850144
 C    -0.2606423358   0.0000000000   1.5927554456
 C    -0.0164284973   0.0000000000   0.1300485922
 C     1.1871920390   0.0000000000  -0.4180737995
 C     1.4328920505   0.0000000000  -1.8761889343
 C     2.6365315967   0.0000000000  -2.4242673675
 C     2.8808124109   0.0000000000  -3.8869691559
 C     4.0744776538   0.0000000000  -4.4354443784
 H     2.0651049728   0.0000000000   0.2111291073
 H     0.5549869875   0.0000000000  -2.5054020084
 H    -0.8954744521   0.0000000000  -0.4974338020
 H     0.6221790013   0.0000000000   2.2155875401
 H     4.9746789660   0.0000000000  -3.8435246365
 H     1.9980117069   0.0000000000  -4.5098325169
 H     3.5155524966   0.0000000000  -1.7967500605
 H    -1.5914769239   0.0000000000   3.2094519643
 H    -2.3544993285   0.0000000000   1.5493834844
 H     4.2116851710   0.0000000000  -5.5036144882
symmetry c1
}
plugin_load('../plugin_localcc/plugin_localcc.so')
plugin_load('./plugin_libcim.so')
memory 15000 mb
set {
  maxiter 100
  r_convergence 1e-7
  basis sto-3g
  df_basis_scf cc-pvdz
  freeze_core true
  guess sad
  scf_type pk
  compute_triples false
  #thresh1 0.0
  #thresh2 0.0
  #thresh3 0.0
}
scf_energy = scf()
plugin('./plugin_libcim.so')

clean()
