#! OMP3 cc-pVDZ gradient for the NO radical


molecule no {
0 2
n
o 1 1.158
}

set {
  basis cc-pvdz
  reference rohf
  guess gwh
}

grad = gradient('omp3')


