#! RKS Linear Exchange Algorithm test for benzene


molecule mol {
    0 1
    C    -1.0478252   -1.4216736    0.0000000
    C    -1.4545034   -0.8554459    1.2062048
    C    -1.4545034   -0.8554459   -1.2062048
    C    -2.2667970    0.2771610    1.2069539
    C    -2.6714781    0.8450211    0.0000000
    C    -2.2667970    0.2771610   -1.2069539
    H    -1.1338534   -1.2920593   -2.1423150
    H    -2.5824943    0.7163066   -2.1437977
    H    -3.3030422    1.7232700    0.0000000
    H    -2.5824943    0.7163066    2.1437977
    H    -1.1338534   -1.2920593    2.1423150
    H    -0.4060253   -2.2919049    0.0000000
    symmetry c1
    no_reorient
    no_com
}

set {
    scf_type dfdirj+link
    df_scf_guess false
    basis cc-pVTZ
    e_convergence 1.0e-10
    screening density
    incfock true
    ints_tolerance 1.0e-12
    linK_ints_tolerance 1.0e-12
}

if psi4.core.get_option("scf", "orbital_optimizer_package") == "INTERNAL":
    incfock_efficient = 15.0
else:
    psi4.set_options({"e_convergence": 9, "d_convergence": 5e-9})
    incfock_efficient = 17.0

linK_energy = energy('b3lyp')
psi4.compare_values(ref_energy, linK_energy, 8, "B3LYP Energy (using LinK algo)")
# Really, what we'd love to test is that the value of SCF ITERATIONS is agnostic to incfock, but this test is long enough as-is.
# Ensuring that property is exactly why we turn incfock off for small residuals.
# We choose a number that'll be an upper bound, even under pessimistic assumptions on differences across machines.
compare(1, variable("SCF ITERATIONS") < incfock_efficient, "LinK Incfock Efficient")
