print '        <<< Literal ZMAT to Cfour >>>'

cfour {
UHF-CCSD(T) energy calculation using AO algorithms
N
H 1 R
H 1 R 2 A

R=1.008
A=105.0

*ACES2(CALC=CCSD(T),BASIS=qz2p
ABCDTYPE=AOBASIS
MULT=2,REF=UHF
OCCUPATION=3-1-1-0/3-0-1-0
SCF_CONV=12
CC_CONV=12
MEMORY=20000000)
}

energy('cfour')

compare_values(-55.5893469688, get_variable('scf total energy'), 6, 'SCF')
compare_values(-0.195530391306, get_variable('mp2 correlation energy'), 6, 'MP2 corl')
compare_values(-55.802645023958, get_variable('ccsd total energy'), 6, 'CCSD')
compare_values(-55.807811611842, get_variable('ccsd(t) total energy'), 6, 'CCSD(T)')

clean()
clean_variables()
cfour {}

print '        <<< Translation of ZMAT to Psi4 format to Cfour >>>'

banner('UHF-CCSD(T) energy calculation using AO algorithms')

molecule {
N
H 1 R
H 1 R 2 A

R=1.008
A=105.0
}

set {
cfour_CALC_level=CCSD(T)
cfour_BASIS=qz2p
cfour_ABCDTYPE=AOBASIS
cfour_REFerence=UHF
cfour_occupation [[3,1,1,0],[3,0,1,0]]
cfour_SCF_CONV=12
cfour_CC_CONV=12
}

energy('cfour')

compare_values(-55.5893469688, get_variable('scf total energy'), 6, 'SCF')
compare_values(-0.195530391306, get_variable('mp2 correlation energy'), 6, 'MP2 corl')
compare_values(-55.802645023958, get_variable('ccsd total energy'), 6, 'CCSD')
compare_values(-55.807811611842, get_variable('ccsd(t) total energy'), 6, 'CCSD(T)')

