#! DF-CCSD cc-pVDZ gradients for the H2O molecule.

ref = psi4.Matrix.from_list([                                            #TEST
        [  0.000000000000,    -0.00000000004556,     0.01125855952669],  #TEST
        [  0.000000000000,     0.00201761388675,    -0.00562927978099],  #TEST
        [  0.000000000000,    -0.00201761384119,    -0.00562927974570]   #TEST
      ])                                                                 #TEST

molecule h2o {
0 1
o
h 1 0.958
h 1 0.958 2 104.4776 
symmetry c1
}

set {
  basis cc-pvdz
  df_basis_scf cc-pvdz-jkfit
  df_basis_cc cc-pvdz-ri
  guess sad
  scf_type df
  freeze_core true
  cc_type df
}

grad = gradient('ccd')

compare_matrices(ref, grad, 5, "Analytic gradients")  #TEST


