#! Cholesky decomposed REMP/cc-pVDZ energies for the CH3 radical

test_dict = { "0.00": -39.68422644447701,  #TEST
              "0.10": -39.68084282038076,  #TEST
              "0.20": -39.67776263674433,  #TEST
              "0.30": -39.67492294865124,  #TEST
              "1.00": -39.65933004580626 } #TEST








ESCF = -39.5329751322223117


molecule ch3 {
units bohr
0 2
C    0.00000000000000      0.00000000000000      0.00000000000000      
H    1.02022495761968     -1.76708146174709      0.00000000000000      
H    1.02022495761968      1.76708146174709      0.00000000000000      
H   -2.04044991523936      0.00000000000000      0.00000000000000      
}



set {
  reference uhf
  basis def2-SVP
  freeze_core true
  cc_type cd
  mp2_type cd
}  

set{
  e_convergence 1.0E-9
  r_convergence 1.0E-8
}

#Avals=[0.00, 0.10, 0.20, 0.30, 1.00]


#for A in Avals:
#     psi4.print_out("running step %5.2f" % A)
#     set remp_A=$A
#     e_remp2=energy('remp2')
#     compare_values(test_dict[remp_A], get_variable("REMP2 TOTAL ENERGY"), 6, "REMP2 Total Energy") #TEST



set remp_A=0.00
e_remp2=energy('remp2')
compare_values(ESCF, variable("SCF TOTAL ENERGY"), 6, "CD-SCF Energy") #TEST
compare_values(test_dict["0.00"], variable("REMP2 TOTAL ENERGY"), 7, "CD-REMP(0.00) Total Energy") #TEST


set remp_A=0.10
e_remp2=energy('remp2')
compare_values(test_dict["0.10"], variable("REMP2 TOTAL ENERGY"), 7, "CD-REMP(0.10) Total Energy") #TEST

set remp_A=0.20
e_remp2=energy('remp2')
compare_values(test_dict["0.20"], variable("REMP2 TOTAL ENERGY"), 7, "CD-REMP(0.20) Total Energy") #TEST

set remp_A=0.30
e_remp2=energy('remp2')
compare_values(test_dict["0.30"], variable("REMP2 TOTAL ENERGY"), 7, "CD-REMP(0.30) Total Energy") #TEST

set remp_A=1.00
e_remp2=energy('remp2')
compare_values(test_dict["1.00"], variable("REMP2 TOTAL ENERGY"), 7, "CD-REMP(1.00) Total Energy") #TEST

