#! Sample with post-Argon atoms !nosample

molecule {
Ba
Ba 1 2.0
units bohr
}

set {
  basis def2-sv_p_
  scf_type df
  DF_BASIS_SCF def2-sv_p_-jkfit
}

analytic_grad = gradient('mp2')
clean()


molecule {
Ba
Ba 1 2.0
units bohr
}

set {
  basis def2-sv_p_
  scf_type df
  DF_BASIS_SCF def2-sv_p_-jkfit
}

analytic_grad = gradient('scf')
clean()


molecule {
In
In 1 2.0
units bohr
}

set {
  basis STO-3G
  scf_type pk
}

thisenergy = energy('mp2')
clean()


molecule {
In
In 1 2.0
units bohr
}

set {
  basis STO-3G
  scf_type pk
}

thisenergy = energy('scf')
clean()


molecule {
Rn
Rn 1 2.0
units bohr
}

set {
  basis def2-svpd
  scf_type df
  DF_BASIS_SCF def2-svpd-ri
}

thisenergy = energy('mp2')
clean()


molecule {
Rn
Rn 1 2.0
units bohr
}

set {
  basis def2-svpd
  scf_type df
  DF_BASIS_SCF def2-svpd-ri
}

thisenergy = energy('scf')
clean()


molecule {
Sr
Sr 1 2.0
units bohr
}

set {
  basis def2-svp
  scf_type pk
}

analytic_grad = gradient('mp2')
clean()


molecule {
Sr
Sr 1 2.0
units bohr
}

set {
  basis def2-svp
  scf_type pk
}

analytic_grad = gradient('scf')
clean()
