#! LR-PE-ADC(1)/sto-3g formaldehyde in presence of 6 water molecules
#! cross-reference against PE-CIS from Psi4 itself

molecule formaldehyde {
    C 2.0092420208996 3.8300915804899 0.8199294419789
    O 2.1078857690998 2.0406638776593 2.1812021228452
    H 2.0682421748693 5.7438044586615 1.5798996515014
    H 1.8588483602149 3.6361694243085 -1.2192956060942
    symmetry c1
    units au
    no_reorient
    no_com
}

set {
    reference rhf
    basis sto-3g
    roots_per_irrep [5]
    qc_module adcc
    pe true
    scf_type pk
    tdscf_states 5
    tdscf_tda true
}

set pe {
 potfile fa_6w.pot
}


_, wfn = energy('td-hf', return_wfn=True)
ref_energies = []
for i in range(5):
    ref_energies.append(wfn.variable(f'TD-HF ROOT 0 -> ROOT {i+1} EXCITATION ENERGY - A SYMMETRY'))

_, wfn = properties('adc(1)', properties=["oscillator_strength", "dipole"], environment='linear_response', return_wfn=True)

