molecule {
0 1
H -0.803001 1.098737 0.000360
H -0.919454 -1.089722 0.000521
O -0.035537 -0.067631 0.000218
--
2 1
Ca 2.281447 -0.004247 -0.000154
units angstrom
no_reorient
symmetry c1
}

set globals {
scf_type df
FREEZE_CORE true
}

ref = -0.11271235519134452

E = energy('sapt0/def2-svp')

compare_values(ref, E, 8, "SAPT0 energy with Ca2+")                                        #TEST

