#! Test if the the guess read in the same basis converges. 

molecule oxygen {
    0 1
    O
    O 1 1.2
}

set reference rhf
set basis cc-pVDZ
set guess sad
set d_convergence 10
if psi4.core.get_option("scf", "orbital_optimizer_package") != "INTERNAL":
    psi4.set_options({"e_convergence": 9, "d_convergence": 5e-9})

energy('scf')

set guess read
energy('scf')

### Open-shell section
oxygen.set_multiplicity(3)

# ROHF
set reference rohf
set guess sad
energy('scf')

set guess read
energy('scf')

# CUHF
set reference cuhf
set guess sad
energy('scf')

set guess read
energy('scf')

if psi4.core.get_option("scf", "orbital_optimizer_package") != "INTERNAL":
    psi4.set_options({"e_convergence": 9, "d_convergence": 5e-8})

# UHF
set reference uhf
set guess sad
energy('scf')

set guess read
energy('scf')
