#! Test if the the guess read in the same basis converges. 

memory 250 mb

molecule oxygen {
    0 1
    O
    O 1 1.2
}

set reference rhf
set basis cc-pVDZ
set guess sad
energy('scf')

set guess read
energy('scf')

compare_values(-149.54395801861, get_variable('SCF TOTAL ENERGY'), 6, 'RHF SCF energy')  #TEST
compare_values(1, get_variable('SCF ITERATIONS'), 6, 'RHF Iterations')  #TEST

# ROHF
oxygen.set_multiplicity(3)

set reference rohf
set guess sad
energy('scf')

set guess read
energy('scf')

compare_values(1, get_variable('SCF ITERATIONS'), 6, 'ROHF Iterations')  #TEST
compare_values(-149.60909083608954, get_variable('SCF TOTAL ENERGY'), 6, 'ROHF SCF energy')  #TEST

# UHF
set reference uhf
set guess sad
energy('scf')

set guess read
energy('scf')

compare_values(1, get_variable('SCF ITERATIONS'), 6, 'UHF Iterations')  #TEST
compare_values(-149.6286212486728004, get_variable('SCF TOTAL ENERGY'), 6, 'UHF SCF energy')  #TEST

# Double check that SAD basis sets work #TEST
molecule helium {                       #TEST
    0 1                                 #TEST
    He                                  #TEST
}                                       #TEST

energy("SCF")                           #TEST
compare_values(-2.8551883987270719, get_variable('SCF TOTAL ENERGY'), 6, 'UHF SCF energy')  #TEST
