#! (H2O)10 structure 1

# PYTHONPATH must include directory above plugin directory.
#     Define either externally or here, then import plugin.
sys.path.insert(0, '/home/deprince/psi4/tests')
import plugin_libcim

molecule h2o {
0 1
O 1.892171 2.692740 5.714358
H 2.003791 1.742631 5.747000
H 1.197640 2.830797 5.070309
O 5.528385 1.855919 -0.773532
H 6.340086 1.800907 -1.277861
H 5.391639 2.793907 -0.640445
O 1.628134 3.640408 1.541391
H 1.681406 3.948579 0.636722
H 2.500442 3.800868 1.901340
O 2.446840 0.000013 5.407344
H 2.580403 -0.741804 5.997345
H 3.323832 0.214872 5.089610
O 2.228048 4.166333 -1.104728
H 2.398723 3.253960 -1.338561
H 1.808182 4.538347 -1.880325
O 0.051934 2.861145 3.650371
H 0.529545 3.219555 2.902266
H -0.806720 3.282333 3.611034
O 4.866388 4.416712 -0.256020
H 4.752864 4.419236 0.694421
H 3.978502 4.499246 -0.603985
O 2.059036 0.980058 1.085695
H 1.840765 1.902849 1.216263
H 1.559627 0.517753 1.758820
O 4.681797 1.185428 1.775412
H 3.776057 0.964348 1.558637
H 5.118738 1.265740 0.927553
O 2.858230 1.583255 -1.507816
H 3.806170 1.540959 -1.381906
H 2.493909 1.154569 -0.733393
O 4.212442 3.789019 2.375415
H 4.444583 2.879687 2.187111
H 4.320300 3.872988 3.322806
O 4.845210 0.856878 4.528970
H 4.841900 1.784732 4.764147
H 4.923015 0.851386 3.574953
O 4.374926 3.542612 5.111235
H 4.711123 4.048087 5.851302
H 3.478716 3.317978 5.361393
O 0.681235 0.168358 3.281891
H 1.264049 -0.005608 4.021009
H 0.322790 1.038169 3.458463
}

memory 15000 mb
set {
  maxiter 100
  r_convergence 1e-7
  basis 6-31g(d)
  df_basis_scf cc-pvdz
  freeze_core true
  guess sad
  scf_type pk
  thresh1 0.001
  thresh2 0.0
  thresh3 5e-5
  denominator_delta 1e-4
}
energy('cim-ccsd(t)')

clean()
