molecule {
H
H 1 R

R = .9
}

plugin_load("./plugin_aointegrals.so")

set globals {
  basis sto-3g
}

set plugin_aointegrals {
  do_tei True
}

plugin("plugin_aointegrals.so")
