molecule mol {
H
H 1 R

R = .9
}

plugin_load("./aointegrals.so")

set globals {
  basis sto-3g
}

set aointegrals {
  do_tei True
}

ref_wfn = psi4.new_wavefunction(mol, psi4.get_global_option('BASIS'))
plugin("aointegrals.so", ref_wfn)
