molecule {
H
H 1 R

R = .9
}

plugin_load("./aointegrals.so")

set globals {
  basis sto-3g
}

set aointegrals {
  do_tei True
}

plugin("aointegrals.so")
