#! SCF STO-3G finite-difference frequencies from energies for H2O
import numpy as np

findif_numbers_w_rproj = [13, 37, 8, 7, 2, 19]
findif_numbers_wo_rproj = [43, 145, 13, 7, 5, 33]
# since distributed driver assumes non-eq for caution's sake, have to assert projection or pass gradient so findif numbers match
set fd_project on
findif_numbers = findif_numbers_w_rproj
# -or-
#findif_numbers = findif_numbers_wo_rproj
# -or-
#scf_g = gradient('scf')
#findif_numbers = findif_numbers_w_rproj

molecule h2o {
  symmetry c1
  O
  H 1 0.9894093
  H 1 0.9894093 2 100.02688
}

set {
  basis sto-3g
  d_convergence 11
  scf_type pk
}

# Test against analytic second derivatives

# Frequencies by 3-pt formula in C1 point group.
set { points 3 }
set findif {print 3}

scf_e, scf_wfn = frequencies('scf', dertype=0, return_wfn=True)

# Frequencies by 5-pt formula in C1 point group.
set { points 5 }

scf_e, scf_wfn = frequencies('scf', dertype=0, return_wfn=True)

clean()

# Frequencies by 3-pt formula in C2v.
molecule h2o {
  symmetry c2v
  O
  H 1 0.9894093
  H 1 0.9894093 2 100.02688
}

set DOCC [3, 0, 1, 1]
set { points 3 }

scf_e, scf_wfn = frequencies('scf', dertype=0, return_wfn=True)

scf_vibinfo = scf_wfn.frequency_analysis
scf_vibonly = qcdb.vib.filter_nonvib(scf_vibinfo)
ref_a1_vibonly = qcdb.vib.filter_nonvib(scf_vibonly, remove=[i for i, d in enumerate(scf_vibonly['gamma'].data) if d != 'A1'])
ref_b2_vibonly = qcdb.vib.filter_nonvib(scf_vibonly, remove=[i for i, d in enumerate(scf_vibonly['gamma'].data) if d != 'B2'])

# Compute A1 frequencies only.
scf_e, scf_wfn = frequencies('scf', dertype=0, irrep=1, return_wfn=True)

a1_vibinfo = scf_wfn.frequency_analysis
a1_vibonly = qcdb.vib.filter_nonvib(a1_vibinfo)
compare(1, qcdb.compare_vibinfos(ref_a1_vibonly, a1_vibonly, 2, 'A1 analyses', verbose=0, forgive=[]), 'A1 analyses')

# Compute B2 frequency only.
scf_e, scf_wfn = frequencies('scf', dertype=0, irrep=4, return_wfn=True)

b2_vibinfo = scf_wfn.frequency_analysis
b2_vibonly = qcdb.vib.filter_nonvib(b2_vibinfo)
compare(1, qcdb.compare_vibinfos(ref_b2_vibonly, b2_vibonly, 2, 'B2 analyses', verbose=0, forgive=[]), 'B2 analyses')

# Frequencies by 5-pt formula in C2v.
set { points 5 }
set hessian_write on
set normal_modes_write on

scf_e, scf_wfn = frequencies('scf', dertype=0, return_wfn=True)

clean()

