#! PE-SCF using PE(ECP) repulsive potentials
#! Reference data from Dalton calculation


molecule fa {
O     22.931000    21.390000    23.466000
C     22.287000    21.712000    22.485000
N     22.832000    22.453000    21.486000
H     21.242000    21.408000    22.312000
H     23.729000    22.867000    21.735000
H     22.234000    23.026000    20.883000
symmetry c1
no_reorient
no_com
}

set {
 basis aug-cc-pVDZ
 pe true
 e_convergence 10
 d_convergence 10
 scf_type pk
}

set pe {
 potfile potential.pot
 pe_ecp true
}

scf_energy, wfn = energy('scf', return_wfn=True, molecule=fa)


set pe {
 potfile potential_sulfur.pot
 pe_ecp true
}

scf_energy, wfn = energy('scf', return_wfn=True, molecule=fa)
