#! Finite difference optimization, run in sow/reap mode.

molecule h2s {
S
H 1 1.336
H 1 1.336 2 92.1
}

set {
   basis sto-3g
   geom_maxiter 4
}

optimize('mp3',mode='sow')

