#! Finite difference optimization, run in sow/reap mode.

molecule h2s {
O
H 1 1.0
H 1 1.0 2 104.5
}

set {
   basis 6-31g
   geom_maxiter 6
}

optimize('mp3',mode='sow')
