#! comparison of DF-CCSD(T) and DLPNO-CCSD(T) without frozen core
#! Also a test of very_tight parameters
#! Methane geometry from HTBH.py in databases
#! The reference DF-CCSD(T) values are stored and not rerun
#! This also tests the low memory overlap/disk algorithms available
import os
memory 4 GB




molecule ch4 {
0 1
C        0.00000000     0.00000000     0.00000000
H        0.00000000     1.08744517     0.00000000
H       -0.51262657    -0.36248173     0.88789526
H       -0.51262657    -0.36248173    -0.88789526
H        1.02525314    -0.36248173     0.00000000
units angstrom
}

set basis aug-cc-pvtz
set freeze_core False
set scf_type df
set mp2_type df
set cc_type df
set nat_orbs False
set pno_convergence very_tight
set e_convergence 1.0e-8
set r_convergence 1.0e-8
set dlpno_toggle_memory false

# Typical use case when memory is low for DLPNO-CCSD
set low_memory_overlap true
set write_qia_pno true
set write_qab_pno true

# Typical use case when memory is low for DLPNO-(T), 
# amplitudes written to disk as last resort
set write_triples_intermediates true
set write_triples_amplitudes false

print('   Testing DLPNO-CCSD(T) w/o frozen core...')
val = energy('dlpno-ccsd(t)')

# DLPNO-CCSD(T) matches DF-CCSD(T) if the thresholds are tightened enough
clean()

# Compare with DLPNO-CCSD(T) values if anything changes in the code
# TODO: This block will not run with windows (fix for future PR)
if os.name != 'nt':
    clean()
