#! check mixing ECP and non-ECP orbital/fitting basis sets in a session

memory 1000 mb

set df_fitting_condition 1e-12

molecule {
-1 1
 I
}

set basis def2-tzvppd

ene, wfn = energy('scf', return_wfn=True)
compare_integers(25, wfn.molecule().Z(0), "Zeff")  #TEST
compare_integers(13, wfn.nalpha(), "nalpha")  #TEST
compare_integers(28, wfn.basisset().n_ecp_core(), "n_ecp_core")  #TEST
compare_values(-296.7441153128044107, ene, 5, "ecp basis")  #TEST

clean()

set basis 3-21g

ene, wfn = energy('scf', return_wfn=True)
compare_integers(53, wfn.molecule().Z(0), "Zeff")  #TEST
compare_integers(27, wfn.nalpha(), "nalpha")  #TEST
compare_integers(0, wfn.basisset().n_ecp_core(), "n_ecp_core")  #TEST
compare_values(-6896.649171106428, ene, 5, "all e- basis after ecp")  #TEST

clean()

set basis def2-tzvppd
set basis_guess true

ene, wfn = energy('scf', return_wfn=True)
compare_integers(25, wfn.molecule().Z(0), "Zeff")  #TEST
compare_integers(13, wfn.nalpha(), "nalpha")  #TEST
compare_integers(28, wfn.basisset().n_ecp_core(), "n_ecp_core")  #TEST
compare_values(-296.7441153128044107, ene, 5, "cast-up with ecp after all e- basis")  #TEST

clean()

basis {
   assign I def2-tzvppd
}
set basis_guess def2-SV(P)

ene, wfn = energy('scf', return_wfn=True)
compare_integers(25, wfn.molecule().Z(0), "Zeff")  #TEST
compare_integers(13, wfn.nalpha(), "nalpha")  #TEST
compare_integers(28, wfn.basisset().n_ecp_core(), "n_ecp_core")  #TEST
compare_values(-296.7441153128044107, ene, 5, "cast-up with ecp custom basis and explicit basis_guess")  #TEST

clean()

set basis_guess 3-21g

try:
    energy('scf')
except ValidationError as e:
    compare_integers(True, 'ECP electrons will be a disaster' in str(e), 'caught bad cast-up basis')  #TEST


# this won't work with basis_guess yet
#basis {
#   assign I def2-tzvppd
#}


