#! Benzene vertical singlet-triplet energy difference computation, using the
#! PubChem database to obtain the initial geometry, at the UHF an ROHF levels of theory.

memory 250 mb

molecule benz{
    pubchem:benzene
}

set {
   basis     DZ
   reference rhf
}

e_sing_rhf = optimize('scf')

benz.set_multiplicity(3)
#
# We could have specified a triplet C6H6 molecule with the following
#
#molecule benz {
#    0 3
#    pubchem:benzene
#}
set reference rohf
e_trip_rohf = energy('scf')
set reference uhf
e_trip_uhf  = energy('scf')

vertical_uhf  = psi_hartree2ev * (e_trip_uhf  - e_sing_rhf)
vertical_rohf = psi_hartree2ev * (e_trip_rohf - e_sing_rhf)
print "\nSinglet-Triplet gap (vertical, UHF)   = %8.2f eV\n" % vertical_uhf
print "\nSinglet-Triplet gap (vertical, ROHF)  = %8.2f eV\n" % vertical_rohf

enuc  =  203.64849933457236                                                          #TEST
erhf  = -230.64169474007278                                                          #TEST
erohf = -230.44833620706100                                                          #TEST
euhf  = -230.45268192818583                                                          #TEST
compare_values(enuc, benz.nuclear_repulsion_energy(), 6, "Nuclear repulsion energy") #TEST 
compare_values(erhf,  e_sing_rhf,  6, "Singlet benzene RHF energy")                  #TEST 
compare_values(erohf, e_trip_rohf, 6, "Triplet benzene UHF energy")                  #TEST 
compare_values(euhf,  e_trip_uhf,  6, "Triplet benzene ROHF energy")                 #TEST 
