#! OMP2 cc-pVDZ energy for the NO radical


memory 250 mb

molecule no {
0 2
n
o 1 1.158
}

set global {
  basis cc-pcvdz
  reference uhf
  guess gwh
}
energy('conv-omp2')

