#! OMP2 cc-pVDZ energy for the NO radical


molecule no {
0 2
n
o 1 1.158
}

set {
  basis cc-pcvdz
  reference uhf
  guess gwh
  mp2_type conv
}
energy('omp2')

