#! SCF STO-3G finite-differences frequencies from gradients for H2O
import numpy as np

molecule h2o {
  symmetry c1
  O
  H 1 0.9894093
  H 1 0.9894093 2 100.02688
}

set {
  basis sto-3g
  d_convergence 11
  scf_type pk
}

findif_numbers_w_rproj = [7, 13, 6, 5, 2, 11]
findif_numbers_wo_rproj = [13, 25, 9, 5, 3, 17]
# since distributed driver assumes non-eq for caution's sake, have to assert projection or pass gradient so findif numbers match
#set fd_project on
#findif_numbers = findif_numbers_w_rproj
# -or-
#findif_numbers = findif_numbers_wo_rproj
# -or-
scf_g = gradient('scf')
findif_numbers = findif_numbers_w_rproj

# Test against analytic second derivatives

# Frequencies by 3-pt formula in C1 point group.
set { points 3 }
set findif {print 3}

scf_e, scf_wfn = frequencies('scf', dertype=1, return_wfn=True, ref_gradient=scf_g)

# Frequencies by 5-pt formula in C1 point group.
set fd_project on  # see note above
set { points 5 }

scf_e, scf_wfn = frequencies('scf', dertype=1, return_wfn=True)

clean()

# Frequencies by 3-pt formula in C2v.
molecule h2o {
  O
  H 1 0.9894093
  H 1 0.9894093 2 100.02688
}

set { points 3 }

scf_e, scf_wfn = frequencies('scf', dertype=1, return_wfn=True)

scf_vibinfo = scf_wfn.frequency_analysis
scf_vibonly = qcdb.vib.filter_nonvib(scf_vibinfo)
ref_a1_vibonly = qcdb.vib.filter_nonvib(scf_vibonly, remove=[i for i, d in enumerate(scf_vibonly['gamma'].data) if d != 'A1'])
ref_b2_vibonly = qcdb.vib.filter_nonvib(scf_vibonly, remove=[i for i, d in enumerate(scf_vibonly['gamma'].data) if d != 'B2'])

# Compute A1 frequencies only.
scf_e, scf_wfn = frequencies('scf', dertype=1, irrep=1, return_wfn=True)

a1_vibinfo = scf_wfn.frequency_analysis
a1_vibonly = qcdb.vib.filter_nonvib(a1_vibinfo)
compare(1, qcdb.compare_vibinfos(ref_a1_vibonly, a1_vibonly, 2, 'A1 analyses', verbose=0, forgive=[]), 'A1 analyses')

# Compute B2 frequency only.
scf_e, scf_wfn = frequencies('scf', dertype=1, irrep=4, return_wfn=True)

b2_vibinfo = scf_wfn.frequency_analysis
b2_vibonly = qcdb.vib.filter_nonvib(b2_vibinfo)
compare(1, qcdb.compare_vibinfos(ref_b2_vibonly, b2_vibonly, 2, 'B2 analyses', verbose=0, forgive=[]), 'B2 analyses')

# Compute all frequencies with 5-point formula.
set findif { points 5 }
set hessian_write on
set normal_modes_write on

scf_e, scf_wfn = frequencies('scf', dertype=1, return_wfn=True)

clean()
