#! SCF STO-3G geometry optimzation, with Z-matrix input

# These values are from a tightly converged QChem run

molecule h2o {
     O
     H 1 1.0
     H 1 1.0 2 104.5
# QChem optimized geometry
#O           0.000000    0.000000    0.138167
#H          -0.758081    0.000000   -0.497635
#H           0.758081    0.000000   -0.497635
}

set globals {
  diis false
  basis sto-3g
  e_convergence 10
  d_convergence 10
}

thisenergy = optimize('scf')


clean()
