#! FSAPT with external charge on dimer

memory 1 GB

# water prism: https://science.sciencemag.org/content/sci/suppl/2012/05/16/336.6083.897.DC1/Perez_SM.pdf
# Table S43
molecule mol {
H  0.0290 -1.1199 -1.5243
O  0.9481 -1.3990 -1.3587
H  1.4371 -0.5588 -1.3099
H -0.5496 -0.6026  1.5720
O -1.4545 -0.1932  1.4677
H -1.9361 -0.4028  2.2769
--
H 1.0088 -1.5240 0.5086
O 1.0209 -1.1732 1.4270
H 1.5864 -0.3901 1.3101
symmetry c1
no_reorient
no_com
}

Chrgfield_B = np.array([
 0.417, -2.5628, -0.8269, -1.6696,
-0.834, -1.7899, -0.4027, -1.2768,
 0.417, -1.8988, -0.4993, -0.3072]).reshape((-1, 4))
Chrgfield_B[:,[1,2,3]] /= psi_bohr2angstroms

Chrgfield_C = np.array([
 0.417,  1.1270, 1.5527, -0.1658,
-0.834,  1.9896, 1.0738, -0.1673,
 0.417,  2.6619, 1.7546, -0.2910,
 0.417, -1.0231, 1.6243, -0.8743,
-0.834, -0.5806, 2.0297, -0.1111,
 0.417, -0.9480, 1.5096,  0.6281]).reshape((-1, 4))
Chrgfield_C[:,[1,2,3]] /= psi_bohr2angstroms

external_potentials = {
                       'B': Chrgfield_B,
                       'C': Chrgfield_C,
                      }

set {
basis jun-cc-pvdz
scf_type df
guess sad
freeze_core true
}

energy('fisapt0', external_potentials=external_potentials)


    }




import os
import sys
import subprocess

os.chdir('fsapt')
with open('fA.dat', 'w') as fA: fA.write("w1 1 2 3 4 5 6")
with open('fB.dat', 'w') as fB: fB.write("w3 7 8 9")
subprocess.run([sys.executable, os.path.join('..', 'fsapt.py')], check=True)

fEnergies = {}




