#! Basis set spherical/Cartesian with cfour_basis and puream

sph_ccpvdz = -76.2307777348   #TEST
cart_ccpvdz = -76.2346763972  #TEST
cart_631gs = -76.1990355202   #TEST
sph_631gs = -76.1953470892    #TEST

molecule h2o {
O
H 1 R
H 1 R 2 A

R=0.958
A=104.5
}

set cfour_units angstrom
set cfour_basis pvdz
set puream true

energy('c4-mp2')
compare_values(sph_ccpvdz, variable('CURRENT ENERGY'), 6, 'cc-pVDZ Default Sph')  #TEST
clean()
clean_variables()

set cfour_basis 6-31g*
set puream true

energy('c4-mp2')
compare_values(sph_631gs, variable('CURRENT ENERGY'), 6, '6-31G* Default Sph')  #TEST
clean()
clean_variables()

set cfour_basis pvdz
set puream false

energy('c4-mp2')
compare_values(cart_ccpvdz, variable('CURRENT ENERGY'), 6, 'cc-pVDZ forced Cart')  #TEST
clean()
clean_variables()

set cfour_basis 6-31g*
set puream false

energy('c4-mp2')
compare_values(cart_631gs, variable('CURRENT ENERGY'), 6, '6-31G* forced Cart')  #TEST
clean()
clean_variables()

