#! Compute the IRC for HCN <-> NCH interconversion at the RHF/DZP level of theory.
# Print
# the path to a trajectory file for visualization
# in Jmol.
# grep '@IRC' on the output to see a nice printout
# of the progress of your IRC computation.

# 1. compute Hessian

molecule hcn {
  H    -0.5958806528   0.9889214459   0.0000000000
  C    -0.5958806528  -0.1660941336   0.0000000000
  N     0.5535292657   0.0711607905   0.0000000000
}

set basis           dzp
set hessian_write   true # write the hessian to a file for later use

hessian('scf', dertype=1)


#####################################################
#### could split into separate input files here #####
#####################################################


# 2. read in Hessian and compute IRC

molecule hcn {
  H    -0.5958806528   0.9889214459   0.0000000000
  C    -0.5958806528  -0.1660941336   0.0000000000
  N     0.5535292657   0.0711607905   0.0000000000
}

# g_convergence needs to be tight for IRCs:
set g_convergence gau_verytight

set {
  basis           dzp
  opt_type        irc
  geom_maxiter    150
  irc_direction   backward
  cart_hess_read  true  # read hessian back in from output.hcn.hess
  irc_points 25
}

energy = optimize('scf')

# The below test is "delicate." The current IRC code overshoots the endpoint, and the # TEST
# final value it will get to is very sensitive to small changes in the code.          # TEST
compare_values(-92.874584188151, energy, "Energy of last IRC point", atol=3.e-4)  #TEST
