#! RHF-CC2-LR/STO-3G optical rotation of (S)-methyloxirane.  gauge =
#! length, omega = (589 355 nm)

molecule smo {
  0 1
# structure from Pederson et al., CPL, submitted
  C  0.152133 -0.035800  0.485797
  C -1.039475  0.615938 -0.061249
  C  1.507144  0.097806 -0.148460
  O -0.828215 -0.788248 -0.239431
  H  0.153725 -0.249258  1.552136
  H -1.863178  0.881921  0.593333
  H -0.949807  1.214210 -0.962771
  H  2.076806 -0.826189 -0.036671
  H  2.074465  0.901788  0.325106
  H  1.414895  0.315852 -1.212218
}

set {
  basis "STO-3G"
  freeze_core true
  gauge length
  omega [589, 355, nm]
}

wfn = properties('cc2',properties=['rotation'], return_wfn=True)[1]

refnre = 124.7885346117614489                     # TEST
refscf = -189.5134172371027432                    # TEST
refcc2 = -189.713535666603491                     # TEST
refoverlap = 0.91534388636                        # TEST
ref589tensor = psi4.core.Matrix.from_list(        # TEST
   [[ 0.116653158229350, -0.136050294376206, -0.040317663907168],   # TEST
    [ 0.020178810546506,  0.045708806213428, -0.130530471978785],   # TEST
    [-0.189602214456136,  0.207372491035560, -0.145086273406846]])  # TEST
ref355tensor = psi4.core.Matrix.from_list(        # TEST
   [[ 0.199315154624056, -0.236145103741689, -0.075627033594829],   # TEST
    [ 0.033233678887394,  0.078305709057096, -0.216237850819074],   # TEST
    [-0.318543397461720,  0.348340079668771, -0.247304234462590]])  # TEST
ref589scalar = - 49.62374 # TEST
ref355scalar = -144.48473 # TEST

compare_values(refnre, smo.nuclear_repulsion_energy(), 6, "Nuclear Repulsion Energy") # TEST
compare_values(refscf, wfn.variable("SCF TOTAL ENERGY"), 6, "SCF Energy") # TEST
compare_values(refcc2, wfn.variable("CC2 TOTAL ENERGY"), 6, "CC2 Energy") # TEST
compare_values(refoverlap, wfn.variable("LEFT-RIGHT CC2 EIGENVECTOR OVERLAP"), 5, "Left-Right CC2 Overlap") # TEST

compare_values(ref589tensor,   wfn.variable("CC2 OPTICAL ROTATION TENSOR (LEN) @ 589NM"),  3, "CC2 rotation tensor @ 589nm in length gauge") # TEST
compare_values(ref355tensor,   wfn.variable("CC2 OPTICAL ROTATION TENSOR (LEN) @ 355NM"),  3, "CC2 rotation tensor @ 355nm in length gauge") # TEST
compare_values(ref589scalar,   variable("CC2 SPECIFIC ROTATION (LEN) @ 589NM"),  3, "CC2 rotation @ 589nm in length gauge") # TEST
compare_values(ref355scalar,   variable("CC2 SPECIFIC ROTATION (LEN) @ 355NM"),  3, "CC2 rotation @ 355nm in length gauge") # TEST

