#! CASSCF/6-31G** energy point

molecule {
O
H 1 1.00
H 1 1.00 2 103.1
}

set {
    basis           6-31G**
    df_basis_scf    cc-pvdz-jkfit
    reference       rhf
    frozen_docc     [1, 0, 0, 0]
    active          [3, 0, 1, 2] 
    scf_type        df
    mcscf_type      ao
}

casscf_energy = energy('casscf')

