#! Similar to mints2, but using the BSE to specify the basis sets


molecule bz {
    X
    X   1  RXX
    X   2  RXX  1  90.0
    C   3  RCC  2  90.0  1   0.0
    C   3  RCC  2  90.0  1  60.0
    C1  3  RCC  2  90.0  1 120.0
    C   3  RCC  2  90.0  1 180.0
    C1  3  RCC  2  90.0  1 240.0
    C   3  RCC  2  90.0  1 300.0
    H1  3  RCH  2  90.0  1   0.0
    H   3  RCH  2  90.0  1  60.0
    H   3  RCH  2  90.0  1 120.0
    H1  3  RCH  2  90.0  1 180.0
    H   3  RCH  2  90.0  1 240.0
    H   3  RCH  2  90.0  1 300.0

    RCC  = 1.3915
    RCH  = 2.4715
    RXX  = 1.00
}

basis  {
   # First, assign 6-31g from BSE (latest version) to all atoms
   assign bse:6-31g
   # Now, assign 3-21G from bse library all carbon atoms (latest version)
   assign C bse:3-21g
   # The two atoms labelled H1 get a STO-3G basis from psi4 library
   assign H1 sto-3g
   # Carbons 3 and 5 get a STO-3G basis from BSE, but specify v0
   assign C1 bse:sto-3g:0
}

 
set d_convergence 11
set e_convergence 11
set scf_type pk
 
scfenergy = energy('scf')

