#! PE-ADC(2)/cc-pvdz formaldehyde in presence of 6 water molecules
#! Reference data from Q-Chem calculation

molecule formaldehyde {
    C 2.0092420208996 3.8300915804899 0.8199294419789
    O 2.1078857690998 2.0406638776593 2.1812021228452
    H 2.0682421748693 5.7438044586615 1.5798996515014
    H 1.8588483602149 3.6361694243085 -1.2192956060942
    symmetry c1
    units au
    no_reorient
    no_com
}

set {
    reference rhf
    basis cc-pvdz
    roots_per_irrep [5]
    qc_module adcc
    pe true
}

set pe {
 potfile fa_6w.pot
}

# Run computation of ADC(2) plus a few properties
_, wfn = properties('adc(2)', properties=["oscillator_strength", "dipole"], return_wfn=True)

energies_uncorrected = [0.15963251547743104, 0.3125861355885466, 0.36222631191059046,      #TEST
                        0.37972031238708653, 0.4118959244399415]                           #TEST
oscillator = [2.0e-06, 0.107304, 0.002257, 0.000664, 0.534128]                             #TEST
pe_ptlr_correction = [-2.9325959339722013e-05, -0.0002702545175242051,                     #TEST
                      -9.683446473705203e-05, -0.0001339512804427152,                      #TEST
                      -0.00270463988662346]                                                #TEST
pe_ptss_correction =  [-0.0005980584740534286, -0.00275711791912612,                       #TEST
                       -0.0008560754671915091, -0.0017443433408762471,                     #TEST
                       -0.0005800145567153289]                                             #TEST
ref_energies = np.array(energies_uncorrected)                                              #TEST
ref_energies += np.array(pe_ptlr_correction) + np.array(pe_ptss_correction)                #TEST
                                                                                           #TEST
compare_arrays(np.array([ref_energies]).T, wfn.variable("ADC(2) excitation energies").np,  #TEST
               1e-5, "ADC(2) excitation energies")                                         #TEST
