#! cGHF 6-31g energy for F2 (stretched geom) using core guess, C1 symmetry, and 4-index ERI

refenergy =  -198.5531476490012

molecule f2 {
0 1
    F 0.0 0.0 0.0
    F 0.0 0.0 1.9
Symmetry C1
}

set {
    reference cghf
    scf_type pk
    diis false
    basis 6-31g
    e_convergence 1e-9
}
thisenergy = energy('scf')

compare_values(refenergy, thisenergy, 8, "Reference energy")
compare_values(True, psi4.variable("SCF ITERATIONS") <= 16, 'cGHF N iter')
