molecule n2 {
  N
  N 1 R

  R = 1.11
}

plugin_load("./plugin_testparse.so")

set {
  basis cc-pVDZ
  guess core
  reference rhf
  opt2 2
  testbool false
}

set plugin_testparse {
  opt3 3
  intarr = [1, 4, 9]
  dblarr = [2.0, 5.0, 7.0]
  follow_vector = [ [[1293, 355], 0.8], [[3532, 987], 0.3] ]
}

plugin("plugin_testparse.so")

