#! Computation of VMFC-corrected water trimer gradient (geometry from J. Chem. Theory Comput. 11, 2126-2136 (2015))

import numpy as np

molecule water_trimer {
O      -2.76373224  -1.24377706  -0.15444566
H      -1.12357791  -2.06227970  -0.05243799
H      -3.80792362  -2.08705525   1.06090407
--
O       2.46924614  -1.75437739  -0.17092884
H       3.76368260  -2.21425403   1.00846104
H       2.30598330   0.07098445  -0.03942473
--
O       0.29127930   3.00875625   0.20308515
H      -1.21253048   1.95820900   0.10303324
H       0.10002049   4.24958115  -1.10222079
no_reorient
no_com
symmetry c1
units bohr
}

g, wfn = psi4.gradient('SCF/STO-3G', molecule=water_trimer, bsse_type='vmfc', max_nbody=2,
                                      return_total_data=True, return_wfn=True)
core.clean()

vmfc_scheme = {'((1, 2), (1, 2))': 1, '((1, 3), (1, 3))': 1, '((2, 3), (2, 3))': 1, #TEST
               '((1,), (1, 2))': -1, '((1,), (1, 3))': -1, '((2,), (1, 2))': -1, #TEST
               '((2,), (2, 3))': -1, '((3,), (1, 3))': -1, '((3,), (2, 3))': -1, #TEST
               '((1,), (1,))': 1, '((2,), (2,))': 1, '((3,), (3,))': 1} #TEST

energy_dict, gradient_dict = {}, {} #TEST
for i in vmfc_scheme: #TEST
    mol = water_trimer.extract_subsets(eval(i)[0], list(set(eval(i)[1]) - set(eval(i)[0]))) #TEST
    gradient_dict[i], wfn_mol = gradient('SCF/STO-3G', molecule=mol, return_wfn=True) #TEST
    energy_dict[i] = core.variable('CURRENT ENERGY') #TEST
    core.clean() #TEST

    compare_values(energy_dict[i], wfn.variables()[i], 8, 'Energy of %s' %i) #TEST
    compare_arrays(gradient_dict[i], wfn.variables()['PTYPE %s' %i], 8, 'Gradient of %s' %i) #TEST

energy, gradient = 0, np.zeros((9, 3)) #TEST

for i in vmfc_scheme: #TEST
    energy += vmfc_scheme[i] * energy_dict[i] #TEST

compare_values(energy, wfn.variables()['2'], 8, 'VMFC-Corrected Energy') #TEST

for i in range(3): #TEST
    key = '((%i,), (%i,))' %(i + 1, i + 1) #TEST
    gradient[i*3: i*3 + 3, :] += vmfc_scheme.pop(key) * np.array(gradient_dict[key]) #TEST

for key in vmfc_scheme: #TEST
    i, j = eval(key)[1][0]-1, eval(key)[1][1]-1 #TEST
    index = [i*3, i*3 + 1, i*3 + 2, j*3, j*3 + 1, j*3 + 2] #TEST
    gradient[index, :] += vmfc_scheme[key] * np.array(gradient_dict[key]) #TEST
 
compare_arrays(gradient, wfn.variables()['GRADIENT 2'], 8, 'VMFC-Corrected Gradient') #TEST
