#! Various basis set extrapolation tests

molecule {
Li

}

set {
    reference rohf
    scf_type pk
    df_scf_guess false
}

e_cbs = energy(cbs,
            scf_wfn='scf',
            scf_basis='aug-cc-pV[DTQ]Z',
            scf_scheme=driver_cbs.scf_xtpl_helgaker_3)

compare_values(-7.4326961561955551, e_cbs, 7, "[1] Li ROHF extrapolated energy") #TEST
compare_values(3.0, get_variable('cbs number'), 6, '[1b]')  #TEST
clean()


# Here's another example
molecule {
H
H 1 R

R = 1
}

set {
    reference rhf
    guess core
    mp2_type conv
    df_scf_guess true
}

e_cbs = energy(cbs,
            corl_wfn='mp2',
            corl_basis='cc-pV[TQ]Z',
            corl_scheme=driver_cbs.corl_xtpl_helgaker_2,
            delta_wfn='ccsd',
            delta_basis='cc-pV[DT]Z',
            delta_scheme=driver_cbs.corl_xtpl_helgaker_2)
compare_values(-1.148287763304, e_cbs, 7, "[2] H2 mp2 extrapolated energy with ccsd delta correction") #TEST
compare_values(3.0, get_variable('cbs number'), 6, '[2b]')  #TEST
clean()


# One final example
molecule {
He
}

set {
    reference rhf
    df_scf_guess false
}

e_cbs = energy(cbs,
            scf_basis='aug-cc-pV[DTQ]Z',
            scf_scheme=driver_cbs.scf_xtpl_helgaker_3,
            corl_wfn='ccsd',
            corl_basis='aug-cc-pV[DT]Z',
            corl_scheme=driver_cbs.corl_xtpl_helgaker_2)

compare_values(-2.9033043421572055642, e_cbs, 7, "[3] He ccsd extrapolated energy") #TEST
compare_values(3.0, get_variable('cbs number'), 6, '[3b]')  #TEST
clean()

# Example with default extrapolation schemes
e_cbs = energy(cbs,
            corl_wfn='mp2',
            corl_basis='cc-pv[dt]z',
            delta_wfn='mp5',
            delta_basis='cc-pVDZ')

compare_values(-2.90394676, e_cbs, 6, '[4] MP5: minimal info')  #TEST
compare_values(2.0, get_variable('cbs number'), 6, '[4b]')  #TEST



