# ROHF-EOM-CCSD/DZ on the lowest two states of each irrep in 3B1 CH2.

molecule ch2 {
  0 3
  c
  h 1 r
  h 1 r 2 a
  r = 1.1
  a = 109.0
}

set {
  reference rohf
  basis DZ
  states_per_irrep [1, 0, 0, 1]
}

energy('eom-ccsd')

escf = -38.904170464925   #TEST
eccsd = -38.98782404003   #TEST
eeom_ccsd = [ -38.7169665265, -38.6330680540]  #TEST
compare_values(escf, get_variable("SCF TOTAL ENERGY"), 7, "SCF energy") #TEST
compare_values(eccsd, get_variable("CCSD TOTAL ENERGY"), 7, "CCSD energy") #TEST
for root in range(1,3):                                 #TEST
 ref = eeom_ccsd[root-1]                                #TEST
 val = get_variable("CC ROOT %d TOTAL ENERGY" % root)   #TEST
 compare_values(ref, val, 7, "EOM-CCSD root %d" % root) #TEST

clean()
