#! Accesses basis sets, databases, plugins, and executables in non-install locations

import os
os.environ['PSIPATH'] = 'psiaux1:psiaux2'

###########################
molecule h2o {
  O 
  H 1 0.96
  H 1 0.96 2 104.5
}

set basis cc-pVDZ
energy('scf')

compare_values(-76.0266327341067125, get_variable('SCF TOTAL ENERGY'), 6, 'Built-in energy')  #TEST
clean()

refS22AmadSAPT0 = 2.105857433479                                                            #TEST
refS22BmadSAPT0 = 2.063857730160                                                            #TEST
refNBCmadDFMP2  = 0.117344794875                                                            #TEST
refNBCmadSCF    = 0.149827452337                                                            #TEST

set globals {
    BASIS sto-3g
    DF_BASIS_SCF  cc-pVDZ-JKFIT
    DF_BASIS_SAPT cc-pVDZ-RI
    DF_BASIS_MP2  cc-pVDZ-RI
    REFERENCE RHF
    SCF_TYPE DF
    PRINT 1
    R_CONVERGENCE 11
    JOBTYPE SP
    GUESS CORE
}

S22mad = database('sapt0','s44',subset=[2,8],BENCHMARK='s22A')
compare_values(refS22AmadSAPT0, S22mad, 5, "PSIPATH database")  #TEST
S22mad = database('sapt0','s22',subset=[2,8],BENCHMARK='s22A')
compare_values(refS22AmadSAPT0, S22mad, 5, "Built-in database")  #TEST
clean()

###########################
# PYTHONPATH must include directory above plugin directory.
#     Define either externally or here, then import plugin.
#sys.path.insert(0, './..')
import myplugin1

molecule water {
O
H 1 R
H 1 R 2 A

R = .9
A = 104.5
symmetry c1
}

set {
  basis sto-3g
    DF_BASIS_SCF  cc-pVDZ-RI
}

set myplugin1 {
  print 1
}

energy('myplugin1')

compare_values(-74.9455096208439784, get_variable('CURRENT ENERGY'), 6, 'PSIPATH plugin')
clean()

###########################
set basis mysto3g
set df_basis_scf myccpvdzri
energy('scf')
compare_values(-74.9455096190513927, get_variable('CURRENT ENERGY'), 6, 'PSIPATH orbital and jk basis sets')
clean()

###########################
ref_d2         = [-0.00390110, -0.00165271, -0.00058118]  #TEST

molecule eneyne {
C   0.000000  -0.667578  -2.124659
C   0.000000   0.667578  -2.124659
H   0.923621  -1.232253  -2.126185
H  -0.923621  -1.232253  -2.126185
H  -0.923621   1.232253  -2.126185
H   0.923621   1.232253  -2.126185
--
C   0.000000   0.000000   2.900503
C   0.000000   0.000000   1.693240
H   0.000000   0.000000   0.627352
H   0.000000   0.000000   3.963929
}

eneyne.update_geometry()
E, G = eneyne.run_dftd3('b3lyp', 'd2gr')
compare_values(ref_d2[0], E, 7, 'PSIPATH dftd3')              #TEST
clean()

###########################
molecule h2o {
  O 
  H 1 0.96
  H 1 0.96 2 104.5
symmetry c1
}

set basis cc-pVDZ
set df_basis_scf cc-pVDZ-JKFIT
energy('scf')

compare_values(-76.0266327341067125, get_variable('SCF TOTAL ENERGY'), 6, 'Built-in energy again')  #TEST
clean()


