#! ROHF-EOM-CCSD/DZ geometry optimization of the lowest 2A1 excited
#! state of H2O+ (B1 excitation).

memory 250 mb

molecule h2o {
  1 2
  H -0.107055195862289   0.000000000000000  -1.832806614599657
  O -0.107055195862289   0.000000000000000   0.094714436481352
  H  1.806098405595803   0.000000000000000   0.329620161376194
  units bohr
}

set {
  reference rohf
  basis DZ
  states_per_irrep [1, 0, 0, 0]
}

optimize('eom-ccsd')
