memory 250 mb

#! Test individual integral objects for correctness.
print_stdout(' Case Study Test of Integrals')

molecule h2o {
  o
  h 1 1.0
  h 1 1.0 2 103.1
}



set globals {
  basis sto-3g
}

wfn = psi4.new_wavefunction(h2o, psi4.get_global_option('BASIS'))
mints = MintsHelper(wfn.basisset())

Li = mints.so_angular_momentum()





set globals {
  basis 6-311G**
}

wfn = psi4.new_wavefunction(h2o, psi4.get_global_option('BASIS'))
mints = MintsHelper(wfn.basisset())

Li = mints.so_angular_momentum()





set globals {
  basis cc-pVTZ
}

wfn = psi4.new_wavefunction(h2o, psi4.get_global_option('BASIS'))
mints = MintsHelper(wfn.basisset())

Li = mints.so_angular_momentum()






set globals {
  basis sto-3g
}

wfn = psi4.new_wavefunction(h2o, psi4.get_global_option('BASIS'))
mints = MintsHelper(wfn.basisset())

Pi = mints.so_nabla()





set globals {
  basis 6-311G**
}

wfn = psi4.new_wavefunction(h2o, psi4.get_global_option('BASIS'))
mints = MintsHelper(wfn.basisset())

Pi = mints.so_nabla()





set globals {
  basis cc-pVTZ
}

wfn = psi4.new_wavefunction(h2o, psi4.get_global_option('BASIS'))
mints = MintsHelper(wfn.basisset())

Pi = mints.so_nabla()




