#! wB97X-D cc-pVDZ gradient of S22 HCN
#! update df/pk_ref values due to new BraggSlater radii

df_ref = psi4.Matrix.from_list([                 #TEST
      [-0.001998570885,  0.029838720809,  0.0],  #TEST
      [ 0.002460269285, -0.036877494737,  0.0],  #TEST
      [-0.000457904789,  0.006980039373,  0.0]]) #TEST

pk_ref = psi4.Matrix.from_list([                                    #TEST
      [  -0.002000961258,     0.029873999654,     0.000000000000],  #TEST
      [   0.002463811822,    -0.036929571622,     0.000000000000],  #TEST
      [  -0.000459059144,     0.006996868712,     0.000000000000]]) #TEST

molecule {
  0 1
  N    -0.0034118    3.5353926    0.0000000
  C     0.0751963    2.3707040    0.0000000
  H     0.1476295    1.3052847    0.0000000
}


set {
    scf_type              df
    basis                 cc-pvdz
    dft_radial_points     99
    dft_spherical_points  302
    points 5
}

anl_grad = gradient('wB97X-D', dertype=1)
compare_matrices(df_ref, anl_grad, 7, "DF Analytic Gradient vs Reference")    #TEST

# fd_grad = gradient('wB97X-D', dertype=0)
# compare_matrices(anl_grad, fd_grad, 3, "Analytic vs FD Gradients")    #TEST

set scf_type pk
anl_grad = gradient('wB97X-D', dertype=1)
compare_matrices(pk_ref, anl_grad, 7, "PK Analytic Gradient vs Reference")    #TEST
