#! LCCD cc-pVDZ gradient for the NO radical

ref = psi4.Matrix.from_list([                                      #TEST
             [ 0.000000000000,  0.000000000000, -0.138608787991],  #TEST
             [ 0.000000000000,  0.000000000000,  0.138608787991]   #TEST
           ])                                                      #TEST

molecule no {
0 2
n
o 1 1.158
}

set {
  basis cc-pvdz
  reference uhf
  guess gwh
}

if psi4.core.get_option("scf", "orbital_optimizer_package") != "INTERNAL":
    psi4.set_options({"e_convergence": 9, "d_convergence": 5e-9})

grad = gradient('lccd')

compare_matrices(ref, grad, 5, "Analytic gradients")  #TEST

