UHF_RPA_cc_pvdz = [0.2445704160468683,
                   0.2878574429978692,
                   0.3179110389232691,
                   0.3547301851175197,
                   0.3879221731828428,
                   0.4038089052916107,
                   0.4352993997260387,
                   0.4508039388809985,
                   0.4834961361605727]

molecule ch2 {
0 3

C           0.000000    0.000000    0.159693
H          -0.000000    0.895527   -0.479080
H          -0.000000   -0.895527   -0.479080
no_reorient
no_com
symmetry c1
}

set {
    reference uhf
    scf_type pk
    e_convergence 8
    d_convergence 8
    TDSCF_E_TOL 5
    TDSCF_STATES_PER_IRREP [9]
    TDSCF_TRIPLETS true
}

e, wfn = energy('hf/cc-pvdz', return_wfn=True)
tdscf(wfn)

ex_ens = np.asarray(wfn.array_variable("TD-HF EXCITATION ENERGIES")).flatten()
ex_labels = np.asarray(wfn.array_variable("TD-HF SYMMETRY LABELS")).flatten()

for n, ref in enumerate(UHF_RPA_cc_pvdz):
    compare_values(ref,ex_ens[n], 4, f"TD-UHF/cc-pvdz (RPA) 0 A -> {n} A Excitation Energy")
