#! td-uhf test on triplet states of methylene (rpa)

UHF_RPA_cc_pvdz = [0.2445704160468683,
                   0.2878574429978692,
                   0.3179110389232691,
                   0.3547301851175197,
                   0.3879221731828428,
                   0.4038089052916107,
                   0.4352993997260387,
                   0.4508039388809985,
                   0.4834961361605727]

molecule ch2 {
0 3

C           0.000000    0.000000    0.159693
H          -0.000000    0.895527   -0.479080
H          -0.000000   -0.895527   -0.479080
symmetry c1
}

set {
    reference uhf
    scf_type pk
    e_convergence 8
    d_convergence 8
}

set scf tdscf_states [9]

energy('td-hf/cc-pvdz')

for n, ref in enumerate(UHF_RPA_cc_pvdz):
    ex_en = psi4.variable(f"TD-HF ROOT 0 -> ROOT {n+1} EXCITATION ENERGY - A TRANSITION")
    compare_values(ref,ex_en, 4, f"TD-UHF/cc-pvdz ROOT 0 -> ROOT {n+1} EXCITATION ENERGY - A TRANSITION")
