from __future__ import print_function
#! SCF cc-pVDZ geometry optimzation, with Z-matrix input

nucenergy = 9.3007                                        #TEST
# This value is from a tightly converged QChem run  
refenergy = -76.027053513                                 #TEST

molecule h2o {
     O
     H 1 1.0
     H 1 1.0 2 104.5
}

set {
  diis false
  basis cc-pvdz
  e_convergence 10
  d_convergence 10
  g_convergence gau_tight
  scf_type pk
}

thisenergy = optimize('scf')

print(h2o.nuclear_repulsion_energy())
print(thisenergy)

compare_values(nucenergy, h2o.nuclear_repulsion_energy(), 3, "Nuclear repulsion energy")    #TEST
compare_values(refenergy, thisenergy, 9, "Reference energy")                                #TEST
