
molecule dimer {
# Set the spin of A
0 2
Li   0.00    0.00    0.00
--
# Set the spin of B
0 2
H   0.000   0.00   10.00
symmetry c1
units bohr
}

set {
basis cc-pVDZ
scf_type pk
e_convergence 1e-8
d_convergence 1e-8
reference rohf
}


compare_dict = { #TEST
    "SAPT ELST ENERGY":                 -0.02368051, #TEST
    "E Elst10":                         -0.02368051, #TEST
    "SAPT EXCH ENERGY":                  0.14186858, #TEST
    "E Exch10(S^2)":                     0.14186858, #TEST
    "E Exch10(S^2) [diagonal]":          0.00010209, #TEST
    "E Exch10(S^2) [off-diagonal]":      0.14176648, #TEST
} #TEST

energy("SF-SAPT")

for k, v in compare_dict.items():
    compare_values(v / 1000.0, psi4.get_variable(k), 6, k) # TEST

