$comment
QM/MM computation of one water molecule in QM part and
one water + two ammonia molecules in EFP part.
$end

$molecule
0 1
O1   0 0 0.118720
H2   -0.753299, 0.0, -0.474880
H3   0.753299, 0.0, -0.474880
$end

$rem
exchange hf
basis 6-31G(d)
jobtype sp
purecart 2222
efp_use_efpman2 1
scf_guess core
print_general_basis true
symmetry off
maxdiis 0
mem_total 1024
THRESH             14
SCF_CONVERGENCE    12
$end

$efp_fragments
h2o -2.12417561  1.22597097 -0.95332054 -2.902133 1.734999 -1.953647
NH3  1.04358758  1.90477190  2.88279926 -1.105309 2.033306 -1.488582
NH3 -4.16795656 -0.98129149 -1.27785935  2.526442 1.658262 -2.742084
$end
