#! MP3 energy components. Checks that computed identically
#! between cfour and psi4

store = {}  #TEST
test_psivars = ['nuclear repulsion energy', 'scf total energy', # 'mp2 singles energy',
    'mp2 correlation energy', 'mp2 total energy', 'mp3 correlation energy', 'mp3 total energy', 'current energy', 'current correlation energy', 'current reference energy']  #TEST

print('    <<<  RHF  >>>')

cfour {
MP3 single-point energy calculation
O
H 1 R
H 1 R 2 A

R=0.958
A=104.5

*ACES2(CALC=MP3,BASIS=AUG-PVDZ
SCF_CONV=12
MEMORY=20000000)
}

energy('cfour')

for vari in test_psivars:  #TEST
    store[vari] = variable(vari)  #TEST
    set_variable(vari, 0.0)  #TEST
    #print(store[vari], variable(vari))  #TEST
    #print variable(vari)  #TEST

clean()
clean_variables()
cfour{}

molecule h2o {
O
H 1 R
H 1 R 2 A

R=0.958
A=104.5
}

set basis aug-cc-pvdz
set e_convergence 10
#set mp2_type conv
set mp_type conv

energy('mp3')

print(test_psivars)  #TEST
print_variables()
for vari in test_psivars:  #TEST
    if vari == 'nuclear repulsion energy':  #TEST
        compare_values(store[vari], variable(vari), 4, vari.upper())  #TEST
    else:  #TEST
        compare_values(store[vari], variable(vari), 6, vari.upper())  #TEST


