#! density fitted OO-REMP/cc-pVDZ engrad single points for the H2O+ molecule.



   
molecule h2o {
1 2
o
h 1 0.958
h 1 0.958 2 104.4776 
symmetry c1
}

set {
  reference uhf
  basis cc-pvdz
  df_basis_scf def2-universal-jkfit
  df_basis_cc def2-TZVPP-ri
  guess sad
  scf_type df
  freeze_core false
  wfn_type oremp
  cc_type df
  mp_type df
  e_convergence 1.0E-9
  r_convergence 1.0E-8
  qc_module occ
  orb_opt true
  max_mograd_convergence 1.0E-7
  rms_mograd_convergence 1.0E-8
  TPDM_ABCD_TYPE direct
}

Avals=[0.00, 0.10, 0.20, 0.30, 1.00]


#for A in Avals:
#     psi4.print_out("running step %5.2f" % A)
#     set remp_A=$A
#     e_remp=energy('remp2')


set remp_A=0.00
ref_grad=psi4.Matrix.from_list([
            [ 0.000000000000,    -0.000000000000,     0.049138329774 ],
            [ 0.000000000000,     0.041865124629,    -0.024569164887 ],  
            [ 0.000000000000,    -0.041865124629,    -0.024569164887 ]])

grad_oremp=gradient('oremp2')



set remp_A=0.10
ref_grad=psi4.Matrix.from_list([
            [  0.000000000000,    -0.000000000000,     0.048212641668  ],
            [  0.000000000000,     0.041343367016,    -0.024106320834  ],
            [  0.000000000000,    -0.041343367016,    -0.024106320834  ]])

grad_oremp=gradient('oremp2')



set remp_A=0.20
ref_grad=psi4.Matrix.from_list([
            [  0.000000000000,     0.000000000000,     0.047556410036 ],
            [  0.000000000000,     0.040973151761,    -0.023778205018 ],
            [  0.000000000000,    -0.040973151761,    -0.023778205018 ]])

grad_oremp=gradient('oremp2')


set remp_A=0.30
ref_grad=psi4.Matrix.from_list([
            [  0.000000000000,    -0.000000000000,     0.047075323522  ],
            [  0.000000000000,     0.040701828521,    -0.023537661761  ],
            [  0.000000000000,    -0.040701828521,    -0.023537661761  ]])

grad_oremp=gradient('oremp2')


set remp_A=1.00
ref_grad=psi4.Matrix.from_list([
            [  0.000000000000,    -0.000000000000,     0.046007417724  ],
            [  0.000000000000,     0.040091039970,    -0.023003708862  ],
            [  0.000000000000,    -0.040091039970,    -0.023003708862  ]])

grad_oremp=gradient('oremp2')
