#! ADC(2)/cc-pvdz calculation of 6 states of water of any spin kind

molecule h2o {
    O 0 0 0
    H 0 0 1.795239827225189
    H 1.693194615993441 0 -0.599043184453037
    symmetry c1
    units au
}

set {
    reference rhf
    basis cc-pvdz
    guess core
    kind any
    roots_per_irrep [6]
    qc_module adcc
}

# Run normal calculation of excitation energies (no properties)
energy_adc, wfn = energy('adc(2)', return_wfn=True)

# Alternative: Run computation of properties as well
properties('adc(2)', properties=["oscillator_strength", "dipole"])

ref_energies = [0.27449969978867916, 0.2997279806072238, 0.35548936167618955,              #TEST
                0.36008702152624844, 0.37440555678357285, 0.38631168594719434]             #TEST
ref_oscillator = [6.554748762473176e-14, 0.028152513792061726, 1.0486149859913024e-13,     #TEST
                  3.27297414087291e-14, 6.244763708330118e-08, 0.0900289696317968]         #TEST
                                                                                           #TEST
compare_arrays(np.array([ref_energies]).T, wfn.variable("ADC(2) excitation energies").np,  #TEST
               1e-5, "ADC(2) excitation energies")                                         #TEST
