#! sns-mp2 on helium dimer

molecule mol {
0 1
He 0 0 0
--
He 2 0 0
}

energy('sns-mp2')


