#! 6-31G H2O Test FCI Energy Point

refnuc   =   9.1622538847319 #TEST
refscf   = -75.983675617214  #TEST
refci    = -76.1209179506153 #TEST
refcorr  = refci - refscf    #TEST
refDipHF =   2.642427192188  #TEST
refDipCI =   2.525376088619  #TEST
refQdpCI =  -5.964331694455  #TEST

molecule h2o {
    O   0.0000000000   0.0000000000  -0.1252739752
    H   0.0000000000   1.4294907237   0.9940944482
    H   0.0000000000  -1.4294907237   0.9940944482
units bohr
}

set {
  basis 6-31G
  print 2
}

thisenergy = prop('fci')

# 7 digits on CI seems ok, but we may need to back it down to 6 later #TEST
compare_values(refnuc, h2o.nuclear_repulsion_energy(), 9, "Nuclear repulsion energy")                  #TEST 
compare_values(refscf, variable("SCF TOTAL ENERGY"),     8, "SCF energy")                          #TEST
compare_values(refci, thisenergy,                      7, "CI energy")                                 #TEST
compare_values(refcorr, variable("CI CORRELATION ENERGY"), 7, "CI correlation energy")             #TEST
compare_values(refDipHF, variable("SCF DIPOLE")[2] * constants.dipmom_au2debye, 3, "SCF Z Component of dipole")                 #TEST
compare_values(refDipCI, variable("CI DIPOLE")[2] * constants.dipmom_au2debye, 3, "CI Z Component of dipole")                   #TEST
compare_values(refQdpCI, variable("CI QUADRUPOLE")[2][2] * constants.dipmom_au2debye * constants.bohr2angstroms, 3, "CI ZZ Component of quadrupole")  #TEST

