#! STO-3G frequencies for H2O by finite-differences of gradients

molecule h2o {
  0 1
  O
  H 1 0.9894093
  H 1 0.9894093 2 100.02688
}

set {
  basis sto-3g
  d_convergence 11
  scf_type pk
}

list_freqs = [2170.045, 4140.001, 4391.065]  #TEST
anal_freqs = psi4.Vector.from_list(list_freqs)  #TEST
a1_freqs = psi4.Vector.from_list(list_freqs[0:2])  #TEST
b2_freqs = psi4.Vector.from_list(list_freqs[2:3])  #TEST

# Compute all frequencies with default 3-point formula.
scf_e, scf_wfn = frequencies('scf', dertype=1, return_wfn=True)

fd_freqs = scf_wfn.frequencies()               #TEST
compare_vectors(anal_freqs, fd_freqs, 1,       #TEST
 "Analytic vs. 3-pt finite-diff freq from grad to 0.1 cm^-1") #TEST


# Compute A1 frequencies only.
scf_e, scf_wfn = frequencies('scf', dertype=1, irrep=1, return_wfn=True)

fd_freqs = scf_wfn.frequencies()               #TEST
compare_vectors(a1_freqs, fd_freqs, 1,         #TEST
 "Analytic vs. 3-pt finite-diff A1 freq from grad to 0.1 cm^-1") #TEST


# Compute B2 frequency only.
scf_e, scf_wfn = frequencies('scf', dertype=1, irrep=4, return_wfn=True)

fd_freqs = scf_wfn.frequencies()               #TEST
compare_vectors(b2_freqs, fd_freqs, 1,         #TEST
 "Analytic vs. 3-pt finite-diff B2 freq from grad to 0.1 cm^-1") #TEST


# Compute all frequencies with 5-point formula.
set findif { points 5 }

scf_e, scf_wfn = frequencies('scf', dertype=1, return_wfn=True)

fd_freqs = scf_wfn.frequencies()               #TEST
compare_vectors(anal_freqs, fd_freqs, 2,       #TEST
 "Analytic vs. 5-pt finite-diff freq from grad to 0.01 cm^-1") #TEST

clean()
