#! Frozen-fragment opt of C2h methane dimer with user-combined reference points.
FROZEN_OPT_ENERGY = -80.7427781  #TEST

memory 1 gb

molecule mol {
   units Angstrom
   0 1
   C          0.00000    -1.459161     0.000000
   H          0.00000    -2.548284     0.000000
   H         -0.51306    -1.094685    -0.888551
   H         -0.51306    -1.094685     0.888551
   H          1.02634    -1.094868     0.000000
   --
   0 1
   C          0.00000     1.459161     0.000000
   H          0.00000     2.548284     0.000000
   H          0.51306     1.094685    -0.888551
   H          0.51306     1.094685     0.888551
   H         -1.02634     1.094868     0.000000
}

set basis aug-cc-pVDZ

set optking {
   freeze_intrafrag true
   frag_mode multi
   frag_ref_atoms = [
     [ [2,3,4,5],  [3], [4]],
     [ [7,8,9,10], [9], [8]]
   ]
}

thisenergy = optimize('mp2')
compare_values(FROZEN_OPT_ENERGY, thisenergy, 6, "aug-cc-pVDZ MP2 frozen-fragment CH4 Dimer Energy")  #TEST

