#! OLCCD cc-pVDZ energy for the H2O molecule.

# OLCCD energy from Jonathon's Psi4Numpy code, run 03/20, residual convergence 12. # TEST
refnuc      =  9.18738642147759 #TEST
refscf      = -76.02676109559437 #TEST
refocepa     = -76.24311146899842 #TEST

molecule h2o {
0 1
o
h 1 0.958
h 1 0.958 2 104.4776 
}

set {
  basis cc-pvdz
}
energy('olccd')

compare_values(refnuc, variable("NUCLEAR REPULSION ENERGY"), 6, "Nuclear Repulsion Energy (a.u.)");  #TEST
compare_values(refscf, variable("SCF TOTAL ENERGY"), 6, "SCF Energy (a.u.)");                        #TEST
compare_values(refocepa, variable("OLCCD TOTAL ENERGY"), 6, "OCEPA(0) Total Energy (a.u.)");               #TEST

