# Compute the IRC for HCN <-> NCH interconversion
# at the RHF/DZP level of theory, and print
# the path to a trajectory file for visualization
# in Jmol.
# grep '@IRC' on the output to see a nice printout
# of the progress of your IRC computation.

molecule hcn {
  H    -0.5958806528   0.9889214459   0.0000000000
  C    -0.5958806528  -0.1660941336   0.0000000000
  N     0.5535292657   0.0711607905   0.0000000000
}

# g_convergence needs to be tight for IRCs:
set g_convergence gau_verytight

set {
  basis           dzp
  opt_type        irc
  geom_maxiter    150
  irc_direction   backward
  full_hess_every 0
}

optimize('scf')
