#! ADC(1)/cc-pvdz calculation of 2 water singlet excited states !nosample

molecule h2o {
    O 0 0 0
    H 0 0 1.795239827225189
    H 1.693194615993441 0 -0.599043184453037
    symmetry c1
    units au
}

set {
    reference rhf
    basis cc-pvdz
    guess core
    roots_per_irrep [2]
}

# Run normal calculation of excitation energies (no properties)
energy_adc, wfn = energy('adc(1)', return_wfn=True)

# Alternative: Run computation of properties as well
properties('adc(1)', properties=["oscillator_strength", "dipole"])

ref_energies = [0.3409089902662787, 0.4070388120498068]                                    #TEST
compare_arrays(np.array([ref_energies]).T, wfn.variable("ADC(1) excitation energies").np,  #TEST
               1e-5, "ADC(1) excitation energies")                                         #TEST
