#! density fitted OO-REMP/cc-pVDZ engrad single points for the H2O+ molecule.

Enuc = 9.187386457589815 #TEST

test_energy_dict = { "0.00": -75.80438002265420,  #TEST
                     "0.10": -75.80183022936143,  #TEST
                     "0.20": -75.79952095796595,  #TEST
                     "0.30": -75.79739912861325,  #TEST
                     "1.00": -75.78581160597487}  #TEST

molecule h2o {
1 2
o
h 1 0.958
h 1 0.958 2 104.4776 
symmetry c1
}

set {
  reference uhf
  basis cc-pvdz
  guess sad
  scf_type cd
  freeze_core false
  wfn_type oremp
  cc_type cd
  mp_type cd
  e_convergence 1.0E-9
  r_convergence 1.0E-8
  qc_module occ
  orb_opt true
  max_mograd_convergence 1.0E-7
  rms_mograd_convergence 1.0E-8
  TPDM_ABCD_TYPE direct
}

Avals=[0.00, 0.10, 0.20, 0.30, 1.00]


#for A in Avals:
#     psi4.print_out("running step %5.2f" % A)
#     set remp_A=$A
#     e_remp=energy('remp2')
#     compare_values(test_dict[remp_A], get_variable("REMP2 TOTAL ENERGY"), 6, "REMP2 Total Energy") #TEST

compare_values(Enuc, h2o.nuclear_repulsion_energy(), 8, "Nuclear Repulsion Energy") #TEST

set remp_A=0.00
energy('oremp2')
compare_values(test_energy_dict["0.00"], variable("OREMP2 TOTAL ENERGY"), 8, "CD-OREMP(0.00) Total Energy") #TEST

set remp_A=0.10
energy('oremp2')
compare_values(test_energy_dict["0.10"], variable("OREMP2 TOTAL ENERGY"), 8, "CD-OREMP(0.10) Total Energy") #TEST


set remp_A=0.20
energy('oremp2')
compare_values(test_energy_dict["0.20"], variable("OREMP2 TOTAL ENERGY"), 8, "CD-OREMP(0.20) Total Energy") #TEST

set remp_A=0.30
energy('oremp2')
compare_values(test_energy_dict["0.30"], variable("OREMP2 TOTAL ENERGY"), 8, "CD-OREMP(0.30) Total Energy") #TEST


set remp_A=1.00
energy('oremp2')
compare_values(test_energy_dict["1.00"], variable("OREMP2 TOTAL ENERGY"), 8, "CD-OREMP(1.00) Total Energy") #TEST
