#! Extrapolated water energies
import numpy as np

nucenergy_ref =   8.8014655646    #TEST
scf_dz_ref    = -76.0213974638      #TEST
scf_adtz_ref  = -76.059124724830    #TEST
mp2_addz_ref  = -76.261216702741    #TEST
mp2_atz_ref   = -76.341088480148    #TEST
mp2_adtz_ref  = -76.3667778886      #TEST
cbs_ref       = -76.371589026502    #TEST
ae_ref        = -76.34300450653124  #TEST
b_lo_ref      = -76.3482732705      #TEST

molecule h2o {
    O
    H 1 1.0
    H 1 1.0 2 104.5
}

# Use DF to save some time
set {
    scf_type      df
    mp2_type      df
    cc_type       df
    e_convergence 7
    reference     rhf
}

h2o.update_geometry()
compare_values(nucenergy_ref, h2o.nuclear_repulsion_energy(), 9, "Nuclear repulsion energy") #TEST

# SCF TESTS
scf_dz = energy(cbs, cbs_metadata = [{"wfn": "hf", "basis": "cc-pVDZ"}])
compare_values(scf_dz_ref, scf_dz, 6, "SCF/DZ Energy Check")  #TEST

scf_adtz = energy(cbs, cbs_metadata = [{"wfn": "hf", "basis": "aug-cc-pV[2T]Z"}])
compare_values(scf_adtz_ref, scf_adtz, 6, "SCF/a[DT]Z Energy Check")  #TEST


# MP2 TESTS
mp2_atz = energy(cbs, cbs_metadata = [{"wfn": "mp2", "basis": "aug-cc-pVTZ"}])
compare_values(mp2_atz_ref, mp2_atz, 6, "MP2/aTZ Energy Check")  #TEST

mp2_adtz = energy(cbs, cbs_metadata = [{"wfn": "hf", "basis": "aug-cc-pvtz"},
                                       {"wfn": "mp2", "basis": "aug-cc-pv[dt]z"}])
compare_values(mp2_adtz_ref, mp2_adtz, 6, "MP2/a[DT]Z Energy Check")  #TEST

# D:CCSD(T) TESTS

cbs_dtz = energy(cbs, cbs_metadata = [{"wfn": "hf", "basis": "cc-pvtz"},
                                      {"wfn": "mp2", "basis": "cc-pv[dt]z"},
                                      {"wfn": "ccsd(t)", "basis": "cc-pvdz"}])
compare_values(cbs_ref, cbs_dtz, 6, "MP2/[DT]Z + D:CCSD(T)/DZ Energy Check")  #TEST

cbs_no_scf = energy(cbs, cbs_metadata=[{"wfn": "mp2", "basis": "cc-pv[dt]z"},
                                       {"wfn": "ccsd(t)", "basis": "cc-pvdz"}])
compare_values(cbs_ref, cbs_no_scf, 6, "MP2/[DT]Z + D:CCSD(T)/DZ without explicit SCF stage") #TEST


# Options test
set freeze_core True

ae_dtz = energy(cbs, cbs_metadata = [{"wfn": "hf", "basis": "cc-pvtz"},
                                      {"wfn": "mp2", "basis": "cc-pv[dt]z"},
                                      {"wfn": "mp2", "basis": "cc-pvdz",
                                       "options": {"freeze_core": "False"}}])
                                       
compare_values(ae_ref, ae_dtz, 6, "MP2/[DT]Z + D:(AE-FC)MP2/DZ Energy Check")  #TEST

b_lo  = energy(cbs, cbs_metadata = [{"wfn": "mp2", "basis": "cc-pvtz", "stage": "corr"},
                                    {"wfn": "mp2", "wfn_lo": "mp2", 
                                     "basis": "aug-cc-pvdz", "basis_lo": "cc-pvdz", "stage": "diff"}])
compare_values(b_lo_ref, b_lo, 6, "MP2/TZ + D:MP2/(aDZ-DZ) (basis_lo check)")  #TEST
