
memory 200 mb

molecule {
O
H 1 R
H 1 R 2 A

R=0.958
A=104.5
}

set {
cfour_CALC_level=MP2
cfour_BASIS=PVTZ
cfour_SCF_CONV=12
rms_force_g_convergence 6
}

optimize('cfour', dertype=0)

compare_values(9.193817619800, get_variable('NUCLEAR REPULSION ENERGY'), 3, 'NRE')
compare_values(-76.057086657615, get_variable('current reference energy'), 6, 'SCF')
compare_values(-0.275174751101, get_variable('current correlation energy'), 6, 'MP2 corl')
compare_values(-76.332261408717, get_variable('current energy'), 6, 'MP2')
compare_values(-0.066581844960, get_variable('mp2 same-spin energy'), 6, 'MP2 SS')
compare_values(-0.208592906141, get_variable('mp2 opposite-spin energy'), 6, 'MP2 OS')

