#! OMP3 cc-pVDZ gradient for the H2O molecule.

ref = psi4.Matrix.from_list([                                 #TEST
        [ 0.000000000000,  0.000000000000,  0.009542917802],  #TEST
        [ 0.000000000000,  0.000708837471, -0.004771458901],  #TEST
        [ 0.000000000000, -0.000708837471, -0.004771458901]   #TEST
      ])                                                      #TEST

molecule h2o {
0 1
o
h 1 0.958
h 1 0.958 2 104.4776 
}

set {
  basis cc-pvdz
}

grad = gradient('omp3')

compare_matrices(ref, grad, 5, "Analytic gradients")  #TEST

