#! Test QCISD(T) for H2O/cc-pvdz Energy
molecule h2o {
0 1
O
H 1 1.0 
H 1 1.0 2 104.5
}
set {
  e_convergence 1e-10
  d_convergence 1e-10
  r_convergence 1e-10
  basis cc-pvdz
  freeze_core true
}
energy('qcisd(t)')

refscf    = -76.02141844515494 #TEST
refqcisd  =  -0.214455072238 #TEST
refqcisdt =  -0.217610678343 #TEST

compare_values(refscf, variable("SCF TOTAL ENERGY"), 8, "SCF total energy") #TEST
compare_values(refqcisd, variable("QCISD CORRELATION ENERGY"), 8, "QCISD correlation energy") #TEST
compare_values(refqcisdt, variable("QCISD(T) CORRELATION ENERGY"), 8, "QCISD(T) correlation energy") #TEST

clean()
