#! DF-MP2 frequency by difference of energies for H2O


molecule h2o {
0 1
o
h 1 0.958
h 1 0.958 2 104.4776 
}

set {
  basis cc-pvdz
  df_basis_scf cc-pvdz-jkfit
  df_basis_cc cc-pvdz-ri
  scf_type df
  guess sad
  freeze_core true
  cc_type df
  qc_module occ
}

tol = 1  # 0.1
if psi4.core.get_option("scf", "orbital_optimizer_package") != "INTERNAL":  # KP-TIGHT
    psi4.set_options({"d_convergence": 10})

e, wfn = frequencies('mp2', dertype=0, return_wfn=True)
